# ========== Slab Flow / Compression Simulation with Piston Forcing ==========
# Starting from equilibrated configuration
# Variables from bash script: dataname, interaction, epsSS, epsSP, nsteps
#
# Atom types: 1=polymer, 2=crosslinker, 3=solvent, 4=support, 5=piston, 6=walls
#
# Reduced LJ units: tau = sigma*sqrt(m/epsilon)
# dt = 0.005 → 1e6 steps ≈ 4.1e3 tau
#
# Modes (set compression_mode below):
#   compression_mode = 0 : PERMEATION  — piston interacts with solvent (WCA);
#                          solvent flows through support under piston pressure.
#   compression_mode = 1 : COMPRESSION — piston passes through solvent (no 3-5
#                          interaction); piston contacts gel directly, squeezes
#                          solvent out the support bottom.  Piston is frozen once
#                          10% linear strain is reached; stresses then relax at
#                          fixed deformation for another nsteps.
#
# Phases:
#   1. Soft push (nsteps_softpush) — resolve polymer/solvent-wall overlaps with
#      ramped soft potential; solvent-piston soft push only in permeation mode.
#   2. Switch to full LJ + minimize + brief equilibration (5000 steps).
#   3. Production — piston force ramps from piston_force_start to piston_force_end.
#      Compression mode: halts at 10% strain, then relaxes for nsteps more.
#      Permeation  mode: runs nsteps with ramped force, no halt.


# ==========================================================================
#                              PARAMETERS
# ==========================================================================

# ----- Mode Selection -----
# 0 = permeation (solvent-piston WCA, piston pushes fluid through gel)
# 1 = compression (solvent-piston OFF, piston loads gel directly; stops at 10%)
variable compression_mode equal 1

# ----- Physical Parameters -----
variable sigma         equal 1.0
variable temp_target   equal 1.0
variable timestep_prod equal 0.005

# ----- Piston Force Ramp -----
# Force ramps linearly from start to end over each production run segment.
# Negative = pushing in -z direction.
variable piston_force_start equal -0.001
variable piston_force_end   equal -0.01

# ----- Soft Push Parameters -----
variable nsteps_softpush    equal 1000
variable soft_prefactor_max equal 50

# ----- Output Frequencies -----
variable thermo_freq     equal 10000
variable dump_freq_setup equal 1000    # frequent dumps during setup (Phases 1-2)
variable dump_freq_prod  equal 10000   # sparse dumps during production (Phase 3)
variable volume_freq     equal 5000

# ----- Time Averaging (stress) -----
# nfreq = nevery * nrepeat  (LAMMPS constraint)
variable num_stress_curves equal 10    # target output frames
variable nevery_target     equal 100   # ~0.5 tau — near stress decorrelation time
variable nrepeat_max       equal 2000  # cap to preserve transient resolution
variable nrepeat_min       equal 50    # floor for adequate noise reduction

variable nfreq_raw    equal floor(${nsteps}/v_num_stress_curves)
variable nrepeat_raw  equal floor(v_nfreq_raw/v_nevery_target)

# Clamp nrepeat to [min, max]
variable nr_lo equal (v_nrepeat_raw>v_nrepeat_min)*v_nrepeat_raw+(v_nrepeat_raw<=v_nrepeat_min)*v_nrepeat_min
variable nrepeat_stress equal (v_nr_lo<v_nrepeat_max)*v_nr_lo+(v_nr_lo>=v_nrepeat_max)*v_nrepeat_max

# Derive nevery and enforce exact constraint
variable nevery_stress equal floor(v_nfreq_raw/v_nrepeat_stress)
variable nfreq_stress  equal v_nevery_stress*v_nrepeat_stress

print ">>> Stress: nevery=${nevery_stress} nrepeat=${nrepeat_stress} nfreq=${nfreq_stress}"
print ">>> Mode: compression_mode=${compression_mode}  (0=permeation, 1=compression)"

# ----- Spatial Binning -----
variable binWidth    equal 2.0
variable rg_scale    equal 1.8   # Rg multiplier (~90% coverage for Gaussian)
variable region_frac equal 1     # fraction of polymer extent for analysis regions


# ==========================================================================
#                           INITIALIZATION
# ==========================================================================

units lj
dimension 3
boundary p p p
atom_style molecular
atom_modify map array

# Define styles before read_data (nocoeff skips coefficient sections)
pair_style hybrid/overlay lj/cut 2.5 soft 2.5
bond_style fene

read_data data_files/${dataname}.data nocoeff

comm_modify cutoff 5.0

print "========================================"
print "Flow/Compression simulation: ${dataname}"
print "Interaction: epsSS=${epsSS}, epsSP=${epsSP}"
print "Production steps: ${nsteps}"
print "Piston force: ${piston_force_start} → ${piston_force_end} (ramp)"
print "========================================"


# ==========================================================================
#                          GROUP DEFINITIONS
# ==========================================================================

group polymer   type 1 2
group solvent   type 3
group support   type 4
group piston    type 5
group walls     type 6
group mobile    type 1 2 3
group gel_system type 1 2 3 4 5


# ==========================================================================
#                       INTERATOMIC POTENTIALS
# ==========================================================================

# ----- LJ Interactions (hybrid/overlay active during soft-push phase) -----
pair_coeff * * lj/cut 1.0 ${sigma} 2.5

# Polymer-solvent & solvent-solvent (tunable)
pair_coeff 1 3 lj/cut ${epsSP} ${sigma} 2.5    # polymer-solvent
pair_coeff 2 3 lj/cut ${epsSP} ${sigma} 2.5    # crosslinker-solvent
pair_coeff 3 3 lj/cut ${epsSS} ${sigma} 2.5    # solvent-solvent

# Polymer/crosslinker with support (WCA repulsive)
pair_coeff 1 4 lj/cut 1.0 ${sigma} 1.22
pair_coeff 2 4 lj/cut 1.0 ${sigma} 1.22

# Polymer/crosslinker with piston (WCA repulsive — both modes)
pair_coeff 1 5 lj/cut 1.0 ${sigma} 1.22
pair_coeff 2 5 lj/cut 1.0 ${sigma} 1.22

# Solvent-piston: OFF during initial setup for both modes.
# In permeation mode this is turned on to WCA after Phase 1.
# In compression mode it stays OFF throughout.
pair_coeff 3 5 lj/cut 0.0 ${sigma} 0.0         # solvent-piston (OFF initially)

# Non-interacting pairs (OFF)
pair_coeff 3 4 lj/cut 0.0 ${sigma} 0.0         # solvent-support
pair_coeff 4 4 lj/cut 0.0 ${sigma} 0.0         # support-support
pair_coeff 4 5 lj/cut 0.0 ${sigma} 0.0         # support-piston
pair_coeff 5 5 lj/cut 0.0 ${sigma} 0.0         # piston-piston

# Wall interactions (OFF for LJ — soft only initially)
pair_coeff 1 6 lj/cut 0.0 ${sigma} 0.0         # polymer-wall
pair_coeff 2 6 lj/cut 0.0 ${sigma} 0.0         # crosslinker-wall
pair_coeff 3 6 lj/cut 0.0 ${sigma} 0.0         # solvent-wall
pair_coeff 4 6 lj/cut 0.0 ${sigma} 0.0         # support-wall
pair_coeff 5 6 lj/cut 0.0 ${sigma} 0.0         # piston-wall
pair_coeff 6 6 lj/cut 0.0 ${sigma} 0.0         # wall-wall

# ----- Soft Potentials (start at zero; ramped in Phase 1) -----
# Solvent-piston soft: only needed for permeation mode (piston must push solvent
# away from its initial overlapping position).  In compression mode the piston
# passes right through solvent, so no overlap resolution is required.
pair_coeff 3 5 soft 0.0 ${sigma}               # solvent-piston (conditional)
pair_coeff 1 6 soft 0.0 ${sigma}               # polymer-wall
pair_coeff 2 6 soft 0.0 ${sigma}               # crosslinker-wall
pair_coeff 3 6 soft 0.0 ${sigma}               # solvent-wall

# ----- Bonds and Angles -----
bond_coeff * 30.0 2.5 1.0 1.0
special_bonds fene

# Angle style — hybrid (uncomment if angles are present in data file)
#angle_style hybrid cosine harmonic
#angle_coeff 1 cosine 1.0
#angle_coeff 2 harmonic 40.0 109.47

# ----- Neighbor List Exclusions -----
neigh_modify exclude type 4 4   # support-support
neigh_modify exclude type 5 5   # piston-piston
neigh_modify exclude type 6 6   # wall-wall
neigh_modify exclude type 4 5   # support-piston
neigh_modify exclude type 4 6   # support-wall
neigh_modify exclude type 5 6   # piston-wall


# ==========================================================================
#                           RIGID BODIES
# ==========================================================================

# Support: completely frozen
velocity support set 0.0 0.0 0.0
fix rigid_support support rigid single force * off off off torque * off off off

# Piston: frozen during setup; z-motion enabled in Phase 3
velocity piston set 0.0 0.0 0.0
fix rigid_piston  piston rigid single force * off off off torque * off off off
fix freeze_piston piston setforce 0.0 0.0 0.0

# Walls: completely frozen
velocity walls set 0.0 0.0 0.0
fix rigid_walls walls rigid single force * off off off torque * off off off


# ==========================================================================
#                           THERMO OUTPUT
# ==========================================================================

compute mobile_temp mobile temp
thermo_style custom step c_mobile_temp pe ke etotal press vol lx ly lz
thermo_modify lost warn
thermo ${thermo_freq}


# ==========================================================================
#              PHASE 1: SOFT PUSH (Resolve Overlaps)
# ==========================================================================

print "========================================"
print "Phase 1: Soft push to resolve overlaps"
print "========================================"

reset_timestep 0
timestep ${timestep_prod}

# Trajectory dump for setup phases (frequent sampling)
dump traj_setup gel_system custom ${dump_freq_setup} &
    traj_files/gel_setup_${dataname}_${interaction}_${nsteps}.lammpstrj &
    id type mol x y z

fix nvt_push mobile nvt temp ${temp_target} ${temp_target} 1.0

# Ramp soft potential from 0 to max
variable soft_ramp equal ramp(0,${soft_prefactor_max})

# Solvent-piston soft push: PERMEATION MODE ONLY.
# In compression mode (compression_mode=1) solvent and piston do not interact,
# so there are no overlaps to resolve between them.
if "${compression_mode} == 0" then &
    "fix adapt_soft_3_5 all adapt 1 pair soft a 3 5 v_soft_ramp"

# Wall soft pushes: needed in both modes
fix adapt_soft_1_6 all adapt 1 pair soft a 1 6 v_soft_ramp
fix adapt_soft_2_6 all adapt 1 pair soft a 2 6 v_soft_ramp
fix adapt_soft_3_6 all adapt 1 pair soft a 3 6 v_soft_ramp

run ${nsteps_softpush}

minimize 1.0e-4 1.0e-6 1000 10000

if "${compression_mode} == 0" then "unfix adapt_soft_3_5"
unfix adapt_soft_1_6
unfix adapt_soft_2_6
unfix adapt_soft_3_6
unfix nvt_push

print "Soft push complete"


# ==========================================================================
#              PHASE 2: SWITCH TO FULL LJ
# ==========================================================================

print "========================================"
print "Phase 2: Switching to full LJ interactions"
print "========================================"

pair_style lj/cut 2.5

pair_coeff * * 1.0 ${sigma} 2.5

# Polymer-solvent & solvent-solvent
pair_coeff 1 3 ${epsSP} ${sigma} 2.5
pair_coeff 2 3 ${epsSP} ${sigma} 2.5
pair_coeff 3 3 ${epsSS} ${sigma} 2.5

# Polymer/crosslinker with support and piston (WCA — both modes)
pair_coeff 1 4 1.0 ${sigma} 1.22
pair_coeff 2 4 1.0 ${sigma} 1.22
pair_coeff 1 5 1.0 ${sigma} 1.22
pair_coeff 2 5 1.0 ${sigma} 1.22

# Solvent-piston:
#   permeation mode  (0) → WCA: piston pushes fluid as a plug
#   compression mode (1) → OFF: piston passes through solvent freely
pair_coeff 3 5 0.0 ${sigma} 0.0                 # default: OFF (compression mode)
if "${compression_mode} == 0" then &
    "pair_coeff 3 5 1.0 ${sigma} 1.22"          # permeation mode: WCA

# Wall interactions (WCA — both modes)
pair_coeff 1 6 1.0 ${sigma} 1.22
pair_coeff 2 6 1.0 ${sigma} 1.22
pair_coeff 3 6 1.0 ${sigma} 1.22

# Non-interacting
pair_coeff 3 4 0.0 ${sigma} 0.0
pair_coeff 4 4 0.0 ${sigma} 0.0
pair_coeff 4 5 0.0 ${sigma} 0.0
pair_coeff 4 6 0.0 ${sigma} 0.0
pair_coeff 5 5 0.0 ${sigma} 0.0
pair_coeff 5 6 0.0 ${sigma} 0.0
pair_coeff 6 6 0.0 ${sigma} 0.0

# Aggressively minimize + brief equilibration
minimize 1.0e-4 1.0e-6 1000 10000

fix nvt_equil mobile nvt temp ${temp_target} ${temp_target} 1.0
run 5000
unfix nvt_equil

# End setup trajectory, start production trajectory
undump traj_setup


# ==========================================================================
#              PHASE 3: PRODUCTION
# ==========================================================================

print "========================================"
print "Phase 3: Production — piston forcing"
print "========================================"

# ----- Enable Piston z-Motion -----
unfix freeze_piston
unfix rigid_piston
fix rigid_piston piston rigid single force * off off on torque * off off off

# ----- Thermostat (x,y only — z is flow/compression direction) -----
compute myTemp mobile temp/partial 1 1 0
fix nvt_prod mobile nvt temp ${temp_target} ${temp_target} 1.0
fix_modify nvt_prod temp myTemp

# ----- Piston Force (linear ramp over each run segment) -----
# ramp(lo,hi) evaluates to lo at step 0 of the run and hi at the final step.
# In compression mode the run may halt early, so the force won't reach
# piston_force_end — but it ramps as far as the run goes.
variable piston_force_ramp equal ramp(${piston_force_start},${piston_force_end})
fix push_piston  piston addforce 0.0 0.0 v_piston_force_ramp
fix piston_drag  piston viscous 0.1

# ----- Production Trajectory (sparse sampling) -----
dump traj_flow gel_system custom ${dump_freq_prod} &
    traj_files/gel_flow_${dataname}_${interaction}_${nsteps}.lammpstrj &
    id type mol x y z


# ==========================================================================
#                    ANALYSIS: POLYMER TRACKING
# ==========================================================================

compute polymer_com polymer com

# ----- Bounding Box (BB) — gel dimensions from min/max coordinates -----
# Sensitive to outlier beads; kept for diagnostics and gel dimension output.
compute minx polymer reduce min x
compute maxx polymer reduce max x
compute miny polymer reduce min y
compute maxy polymer reduce max y
compute minz polymer reduce min z
compute maxz polymer reduce max z

variable gel_lx_bb equal c_maxx-c_minx
variable gel_ly_bb equal c_maxy-c_miny
variable gel_lz_bb equal c_maxz-c_minz
variable gel_vol_bb equal v_gel_lx_bb*v_gel_ly_bb*v_gel_lz_bb

# ----- Radius of Gyration (Rg) — robust gel dimensions -----
# For a uniform rectangular prism: Rg_ii² = L_i²/12  →  L_i = 2√3·√(Rg_ii²)
# c_rg_tensor[i] returns Rg_ii² (diagonal component of gyration tensor).
compute rg_tensor polymer gyration

variable gel_lx_rg equal 2.0*sqrt(3.0*c_rg_tensor[1])
variable gel_ly_rg equal 2.0*sqrt(3.0*c_rg_tensor[2])
variable gel_lz_rg equal 2.0*sqrt(3.0*c_rg_tensor[3])
variable gel_vol_rg equal v_gel_lx_rg*v_gel_ly_rg*v_gel_lz_rg

# ----- Box dimensions -----
variable box_lx equal lx
variable box_ly equal ly
variable box_lz equal lz

run 0   # initializes ALL computes above in one pass

# Snapshot Rg tensor for diagnostics and analysis region sizing
variable Rg_xx equal c_rg_tensor[1]
variable Rg_yy equal c_rg_tensor[2]
variable Rg_zz equal c_rg_tensor[3]

print "Rg_xx = ${Rg_xx}  →  Lx_rg = $(v_gel_lx_rg)"
print "Rg_yy = ${Rg_yy}  →  Ly_rg = $(v_gel_ly_rg)"
print "Rg_zz = ${Rg_zz}  →  Lz_rg = $(v_gel_lz_rg)"
print "BB:  Lx=$(v_gel_lx_bb) Ly=$(v_gel_ly_bb) Lz=$(v_gel_lz_bb)"

# Analysis region half-widths (still use rg_scale for ~90% coverage)
variable eps equal 1.0e-12
variable hw_x equal v_region_frac*v_rg_scale*sqrt(v_Rg_xx + v_eps)
variable hw_y equal v_region_frac*v_rg_scale*sqrt(v_Rg_yy + v_eps)
variable hw_z equal v_region_frac*v_rg_scale*sqrt(v_Rg_zz + v_eps)

print "hw_x = ${hw_x}"
print "hw_y = ${hw_y}"
print "hw_z = ${hw_z}"

# ----- Gel strain (Rg-based) -----
# $(v_gel_lz_rg) — parentheses force immediate numeric evaluation right now,
# storing a constant. ${gel_lz_rg} would store the expression string instead.
variable gel_lz_initial equal $(v_gel_lz_rg)
print ">>> Initial gel thickness (Rg): L0 = ${gel_lz_initial}"
print ">>> Initial gel thickness (BB): L0 = $(v_gel_lz_bb)"

variable gel_strain equal (v_gel_lz_initial - v_gel_lz_rg) / v_gel_lz_initial


# ==========================================================================
#                    ANALYSIS: DYNAMIC REGIONS
# ==========================================================================

# Region for X-direction binning: restricted in Y-Z, full extent in X
variable reg_x_ylo equal c_polymer_com[2]-v_hw_y
variable reg_x_yhi equal c_polymer_com[2]+v_hw_y
variable reg_x_zlo equal c_polymer_com[3]-v_hw_z
variable reg_x_zhi equal c_polymer_com[3]+v_hw_z
region reg_x block EDGE EDGE v_reg_x_ylo v_reg_x_yhi v_reg_x_zlo v_reg_x_zhi side in

# Region for Y-direction binning: restricted in X-Z, full extent in Y
variable reg_y_xlo equal c_polymer_com[1]-v_hw_x
variable reg_y_xhi equal c_polymer_com[1]+v_hw_x
variable reg_y_zlo equal c_polymer_com[3]-v_hw_z
variable reg_y_zhi equal c_polymer_com[3]+v_hw_z
region reg_y block v_reg_y_xlo v_reg_y_xhi EDGE EDGE v_reg_y_zlo v_reg_y_zhi side in

# Region for Z-direction binning: restricted in X-Y, full extent in Z
variable reg_z_xlo equal c_polymer_com[1]-v_hw_x
variable reg_z_xhi equal c_polymer_com[1]+v_hw_x
variable reg_z_ylo equal c_polymer_com[2]-v_hw_y
variable reg_z_yhi equal c_polymer_com[2]+v_hw_y
region reg_z block v_reg_z_xlo v_reg_z_xhi v_reg_z_ylo v_reg_z_yhi EDGE EDGE side in


# ==========================================================================
#                    ANALYSIS: CHUNK DEFINITIONS
# ==========================================================================

# 1D binning with dynamic rectangular regions
compute chunk_x_polymer polymer chunk/atom bin/1d x lower ${binWidth} region reg_x
compute chunk_y_polymer polymer chunk/atom bin/1d y lower ${binWidth} region reg_y
compute chunk_z_polymer polymer chunk/atom bin/1d z lower ${binWidth} region reg_z

compute chunk_x_solvent solvent chunk/atom bin/1d x lower ${binWidth} region reg_x
compute chunk_y_solvent solvent chunk/atom bin/1d y lower ${binWidth} region reg_y
compute chunk_z_solvent solvent chunk/atom bin/1d z lower ${binWidth} region reg_z


# ==========================================================================
#                    ANALYSIS: PARTIAL STRESSES
# ==========================================================================

compute stress_polymer polymer stress/atom NULL
compute stress_solvent solvent stress/atom NULL

# Partial stress for each atom: P = -(σxx + σyy + σzz)/(3*vol)
variable press_polymer_x atom -(c_stress_polymer[1]+c_stress_polymer[2]+c_stress_polymer[3])/(3.0*${binWidth}*ly*lz)
variable press_polymer_y atom -(c_stress_polymer[1]+c_stress_polymer[2]+c_stress_polymer[3])/(3.0*lx*${binWidth}*lz)
variable press_polymer_z atom -(c_stress_polymer[1]+c_stress_polymer[2]+c_stress_polymer[3])/(3.0*lx*ly*${binWidth})

variable press_solvent_x atom -(c_stress_solvent[1]+c_stress_solvent[2]+c_stress_solvent[3])/(3.0*${binWidth}*ly*lz)
variable press_solvent_y atom -(c_stress_solvent[1]+c_stress_solvent[2]+c_stress_solvent[3])/(3.0*lx*${binWidth}*lz)
variable press_solvent_z atom -(c_stress_solvent[1]+c_stress_solvent[2]+c_stress_solvent[3])/(3.0*lx*ly*${binWidth})

# Sum pre-divided per-atom contributions over chunks → pressure per bin
compute press_x_polymer polymer reduce/chunk chunk_x_polymer sum v_press_polymer_x
compute press_y_polymer polymer reduce/chunk chunk_y_polymer sum v_press_polymer_y
compute press_z_polymer polymer reduce/chunk chunk_z_polymer sum v_press_polymer_z

compute press_x_solvent solvent reduce/chunk chunk_x_solvent sum v_press_solvent_x
compute press_y_solvent solvent reduce/chunk chunk_y_solvent sum v_press_solvent_y
compute press_z_solvent solvent reduce/chunk chunk_z_solvent sum v_press_solvent_z


# ==========================================================================
#                         OUTPUT: PISTON DATA
# ==========================================================================

compute piston_z  piston reduce ave z
compute piston_vz piston reduce ave vz

fix out_piston_pos all print ${volume_freq} "$(step) $(c_piston_z)" &
    file output_files/piston_data/piston_position_${dataname}_${interaction}_${nsteps}.dat screen no

fix out_piston_vel all print ${volume_freq} "$(step) $(c_piston_vz)" &
    file output_files/piston_data/piston_velocity_${dataname}_${interaction}_${nsteps}.dat screen no


# ==========================================================================
#                    OUTPUT: PARTIAL STRESS PROFILES (time-averaged)
# ==========================================================================

fix avg_stress_x_poly all ave/time ${nevery_stress} ${nrepeat_stress} ${nfreq_stress} &
    c_press_x_polymer mode vector file output_files/stress_data/stress_x_polymer_${dataname}_${interaction}_${nsteps}.dat

fix avg_stress_y_poly all ave/time ${nevery_stress} ${nrepeat_stress} ${nfreq_stress} &
    c_press_y_polymer mode vector file output_files/stress_data/stress_y_polymer_${dataname}_${interaction}_${nsteps}.dat

fix avg_stress_z_poly all ave/time ${nevery_stress} ${nrepeat_stress} ${nfreq_stress} &
    c_press_z_polymer mode vector file output_files/stress_data/stress_z_polymer_${dataname}_${interaction}_${nsteps}.dat

fix avg_stress_x_solv all ave/time ${nevery_stress} ${nrepeat_stress} ${nfreq_stress} &
    c_press_x_solvent mode vector file output_files/stress_data/stress_x_solvent_${dataname}_${interaction}_${nsteps}.dat

fix avg_stress_y_solv all ave/time ${nevery_stress} ${nrepeat_stress} ${nfreq_stress} &
    c_press_y_solvent mode vector file output_files/stress_data/stress_y_solvent_${dataname}_${interaction}_${nsteps}.dat

fix avg_stress_z_solv all ave/time ${nevery_stress} ${nrepeat_stress} ${nfreq_stress} &
    c_press_z_solvent mode vector file output_files/stress_data/stress_z_solvent_${dataname}_${interaction}_${nsteps}.dat


# ==========================================================================
#                    OUTPUT: GEL STRAIN (for longitudinal modulus)
# ==========================================================================
# Columns: timestep | L_initial_rg (constant) | L_current_rg (dynamic)
# ΔL = L_initial - L_current;  ε = ΔL / L_initial
# Gel thickness from Rg: L = 2√3·√(Rg_zz²)  (uniform rectangular prism)
# This file is read by longitudinal_modulus_analysis.ipynb.

fix out_strain_zz all print ${volume_freq} &
    "$(step) ${gel_lz_initial} $(v_gel_lz_rg)" &
    file output_files/stress_data/strain_zz_${dataname}_${interaction}_${nsteps}.dat screen no

# Echo current strain to thermo log as well
variable gel_strain_pct equal v_gel_strain*100.0
fix out_gel_strain_thermo all print ${thermo_freq} &
    ">>> gel_strain = $(v_gel_strain_pct) %" screen yes &
    file output_files/stress_data/gel_strain_log_${dataname}_${interaction}_${nsteps}.dat


# ==========================================================================
#                    OUTPUT: GEL DIMENSIONS
# ==========================================================================

# Bounding-box volume and dimensions (for comparison/diagnostics)
fix out_gel_vol_bb all print ${volume_freq} "$(step) $(v_gel_vol_bb)" &
    file output_files/volume_data/gel_volume_bb_${dataname}_${interaction}_${nsteps}.dat screen no

fix out_gel_dims_bb all print ${volume_freq} "$(step) $(v_gel_lx_bb) $(v_gel_ly_bb) $(v_gel_lz_bb)" &
    file output_files/volume_data/gel_dimensions_bb_${dataname}_${interaction}_${nsteps}.dat screen no

# Rg-based volume and dimensions (rectangular prism: L_i = 2√3·√Rg_ii²)
fix out_gel_vol_rg all print ${volume_freq} "$(step) $(v_gel_vol_rg)" &
    file output_files/volume_data/gel_volume_rg_${dataname}_${interaction}_${nsteps}.dat screen no

fix out_gel_dims_rg all print ${volume_freq} "$(step) $(v_gel_lx_rg) $(v_gel_ly_rg) $(v_gel_lz_rg)" &
    file output_files/volume_data/gel_dimensions_rg_${dataname}_${interaction}_${nsteps}.dat screen no

# Box dimensions
fix out_box_dims all print ${volume_freq} "$(step) $(v_box_lx) $(v_box_ly) $(v_box_lz)" &
    file output_files/volume_data/box_dimensions_${dataname}_${interaction}_${nsteps}.dat screen no

fix out_polymer_com all print ${volume_freq} &
    "$(step) $(c_polymer_com[1]) $(c_polymer_com[2]) $(c_polymer_com[3])" &
    file output_files/volume_data/polymer_com_${dataname}_${interaction}_${nsteps}.dat screen no


# ==========================================================================
#         COMPRESSION MODE: HALT AT 12% STRAIN
# ==========================================================================
# fix halt stops the current run command (error continue = no abort).
# After the run exits the script continues to the relaxation block below.
# In permeation mode this fix is not created, so the run simply goes to nsteps.

if "${compression_mode} == 1" then &
    "fix halt_compress all halt ${volume_freq} v_gel_strain >= 0.12 error continue"

print ">>> Starting Phase 3 production run (nsteps = ${nsteps})"
print ">>> compression_mode = ${compression_mode}"


# ==========================================================================
#                         PRODUCTION RUN — PHASE 3a
# ==========================================================================
# Compression mode: this run halts early when gel_strain >= 0.10.
# Permeation mode:  this run runs to completion (nsteps).

run ${nsteps}


# ==========================================================================
#              COMPRESSION MODE — FREEZE PISTON + PHASE 3b RELAX
# ==========================================================================
# These commands only execute when compression_mode == 1.
# After the halt the gel is at ~10% strain.  We freeze the piston in place
# and run another nsteps so the partial stresses can relax to equilibrium
# at fixed deformation.  All output fixes remain active during Phase 3b.
# NOTE: ave/time accumulators continue from where they left off — the output
# files will contain entries spanning both the compression and relaxation phases.

if "${compression_mode} == 1" then "unfix halt_compress"
if "${compression_mode} == 1" then "print '>>> 10% compression reached (or nsteps exhausted)'"
if "${compression_mode} == 1" then "print '>>> Freezing piston and starting stress relaxation'"

# Disable piston force and motion
if "${compression_mode} == 1" then "unfix push_piston"
if "${compression_mode} == 1" then "unfix piston_drag"
if "${compression_mode} == 1" then "unfix rigid_piston"
if "${compression_mode} == 1" then "velocity piston set 0.0 0.0 0.0"
if "${compression_mode} == 1" then &
    "fix rigid_piston piston rigid single force * off off off torque * off off off"

# Redefine piston force ramp for Phase 3b (will be zero since piston is frozen,
# but the variable must exist for the ramp not to error if referenced elsewhere).
# Nothing applies it since push_piston is unfixed.

if "${compression_mode} == 1" then "run ${nsteps}"


# ==========================================================================
#                            CLEANUP
# ==========================================================================

# Unfix piston motion fixes — only still active in permeation mode
if "${compression_mode} == 0" then "unfix push_piston"
if "${compression_mode} == 0" then "unfix piston_drag"

undump traj_flow

print "========================================"
print "Simulation complete"
print "========================================"

write_data final_flow_${dataname}_${interaction}_${nsteps}.data
