======================================
Working directory: /jet/home/dpollard/Documents/lammps_runs/slab_with_flow_walled_slab_support_5beads_10x10x5_rho6_extra_padding43_1.5_1.4_10000000_1.5_1.4_20260109_120229
Trajectory directory (scratch): /ocean/projects/chm250028p/dpollard/lammps_trajectories/slab_with_flow_walled_slab_support_5beads_10x10x5_rho6_extra_padding43_1.5_1.4_10000000_1.5_1.4_20260109_120229
======================================
Running LAMMPS in slab_with_flow with:
  dataname=walled_slab_support_5beads_10x10x5_rho6_extra_padding43_1.5_1.4_10000000
  epsSS=1.5, epsSP=1.4
  nsteps=100000, oldsteps=0, totsteps=100000
SLURM tasks per node: 120
SLURM CPUs per task: 1
SLURM_GPUS_ON_NODE: 
GPUs allocated: 
Running CPU-only with 480 tasks
LAMMPS (22 Jul 2025)
  using 1 OpenMP thread(s) per MPI task
using multi-threaded neighbor list subroutines
Reading data file ...
  orthogonal box = (-6.8704069 -6.8704069 -4.3828458) to (93.870407 93.870407 59.882846)
  8 by 10 by 6 MPI processor grid
  reading atoms ...
  1988110 atoms
  scanning bonds ...
  3 = max bonds/atom
  orthogonal box = (-6.8704069 -6.8704069 -4.3828458) to (93.870407 93.870407 59.882846)
  8 by 10 by 6 MPI processor grid
  reading bonds ...
  143401 bonds
Finding 1-2 1-3 1-4 neighbors ...
  special bond factors lj:    0        0        0       
  special bond factors coul:  0        0        0       
     4 = max # of 1-2 neighbors
     4 = max # of 1-3 neighbors
     8 = max # of 1-4 neighbors
    12 = max # of special neighbors
  special bonds CPU = 0.158 seconds
  read_data CPU = 5.873 seconds
========================================
Flow simulation: walled_slab_support_5beads_10x10x5_rho6_extra_padding43_1.5_1.4_10000000
Interaction: epsSS=1.5, epsSP=1.4
Production steps: 100000
Piston force per bead: -0.1
========================================
126674 atoms in group polymer
309048 atoms in group solvent
109654 atoms in group support
109654 atoms in group piston
1333080 atoms in group walls
435722 atoms in group mobile
1679062 atoms in group gel_system
Finding 1-2 1-3 1-4 neighbors ...
  special bond factors lj:    0        1        1       
  special bond factors coul:  0        1        1       
     4 = max # of 1-2 neighbors
    12 = max # of special neighbors
  special bonds CPU = 0.059 seconds
  1 rigid bodies with 109654 atoms
  1 rigid bodies with 109654 atoms
  1 rigid bodies with 1333080 atoms
========================================
Phase 1: Soft push to resolve solvent-piston overlaps
========================================
Generated 0 of 15 mixed pair_coeff terms from geometric mixing rule
Hybrid pair style last /omp style soft
Last active /omp style is bond_style fene/omp
WARNING: More than one fix rigid (src/RIGID/fix_rigid.cpp:712)
WARNING: More than one fix rigid (src/RIGID/fix_rigid.cpp:712)
WARNING: More than one fix rigid (src/RIGID/fix_rigid.cpp:712)
Neighbor list info ...
  update: every = 1 steps, delay = 0 steps, check = yes
  max neighbors/atom: 2000, page size: 100000
  master list distance cutoff = 2.8
  ghost atom cutoff = 5
  binsize = 1.4, bins = 72 72 46
  2 neighbor lists, perpetual/occasional/extra = 2 0 0
  (1) pair lj/cut, perpetual
      attributes: half, newton on, omp, cut 2.8
      pair build: half/bin/newton/omp
      stencil: half/bin/3d
      bin: standard
  (2) pair soft, perpetual, skip from (1)
      attributes: half, newton on, omp
      pair build: skip/omp
      stencil: none
      bin: none
Setting up Verlet run ...
  Unit style    : lj
  Current step  : 0
  Time step     : 0.005
Per MPI rank memory allocation (min/avg/max) = 19.33 | 40.02 | 75.82 Mbytes
   Step          Temp          PotEng         KinEng         TotEng         Press          Volume           Lx             Ly             Lz      
         0   0             -0.015269601    0             -0.015269601    0.020612435    652213.97      100.74081      100.74081      64.265692    
      1000   1.291442      -0.089147963    0.42456113     0.33541316     2.3667673      652213.97      100.74081      100.74081      64.265692    
Loop time of 91.1161 on 480 procs for 1000 steps with 1988110 atoms

Performance: 4741.202 tau/day, 10.975 timesteps/s, 21.820 Matom-step/s
99.2% CPU use with 480 MPI tasks x 1 OpenMP threads

MPI task timing breakdown:
Section |  min time  |  avg time  |  max time  |%varavg| %total
---------------------------------------------------------------
Pair    | 1.1235     | 6.4071     | 18.539     | 241.4 |  7.03
Bond    | 0.0029762  | 0.019285   | 0.048902   |   6.0 |  0.02
Neigh   | 66.439     | 67.512     | 68.485     |   8.0 | 74.09
Comm    | 1.2624     | 8.6532     | 20.96      | 218.5 |  9.50
Output  | 0.0025248  | 0.002546   | 0.0025904  |   0.0 |  0.00
Modify  | 1.4265     | 8.1956     | 19.628     | 222.2 |  8.99
Other   |            | 0.326      |            |       |  0.36

Nlocal:         4141.9 ave        9572 max        1114 min
Histogram: 192 96 0 0 0 0 64 16 85 27
Nghost:        20362.6 ave       43013 max        6990 min
Histogram: 144 0 72 57 55 7 49 64 0 32
Neighs:    2.27627e+06 ave 7.12042e+06 max       40234 min
Histogram: 288 0 0 0 0 0 64 60 43 25

Total # of neighbors = 1.0926076e+09
Ave neighs/atom = 549.57099
Ave special neighs/atom = 0.14425862
Neighbor list builds = 620
Dangerous builds = 256
Soft push complete - overlaps resolved
========================================
Phase 2: Switching to full LJ interactions
========================================
Generated 0 of 15 mixed pair_coeff terms from geometric mixing rule
Last active /omp style is bond_style fene/omp
WARNING: More than one fix rigid (src/RIGID/fix_rigid.cpp:712)
WARNING: More than one fix rigid (src/RIGID/fix_rigid.cpp:712)
WARNING: More than one fix rigid (src/RIGID/fix_rigid.cpp:712)
Neighbor list info ...
  update: every = 1 steps, delay = 0 steps, check = yes
  max neighbors/atom: 2000, page size: 100000
  master list distance cutoff = 2.8
  ghost atom cutoff = 5
  binsize = 1.4, bins = 72 72 46
  1 neighbor lists, perpetual/occasional/extra = 1 0 0
  (1) pair lj/cut/omp, perpetual
      attributes: half, newton on, omp
      pair build: half/bin/newton/omp
      stencil: half/bin/3d
      bin: standard
Setting up cg style minimization ...
  Unit style    : lj
  Current step  : 1000
Per MPI rank memory allocation (min/avg/max) = 19.94 | 32.67 | 56.07 Mbytes
   Step          Temp          PotEng         KinEng         TotEng         Press          Volume           Lx             Ly             Lz      
      1000   1.291442      -0.2413613      0.42456113     0.18319982     2.7244982      652213.97      100.74081      100.74081      64.265692    
      1345   1.291442      -0.71343877     0.42456113    -0.28887764    -2.603224       652213.97      100.74081      100.74081      64.265692    
Loop time of 5.19946 on 480 procs for 345 steps with 1988110 atoms

98.6% CPU use with 480 MPI tasks x 1 OpenMP threads

Minimization stats:
  Stopping criterion = energy tolerance
  Energy initial, next-to-last, final = 
    -0.241361304391501 -0.713372867829154 -0.713438769998005
  Force two-norm initial, final = 38868.995 721.73602
  Force max component initial, final = 3896.5044 263.26391
  Final line search alpha, max atom move = 0.00035604299 0.093733269
  Iterations, force evaluations = 345 378

MPI task timing breakdown:
Section |  min time  |  avg time  |  max time  |%varavg| %total
---------------------------------------------------------------
Pair    | 0.039631   | 0.31791    | 0.74407    |  26.4 |  6.11
Bond    | 0.00099434 | 0.0057147  | 0.009761   |   3.2 |  0.11
Neigh   | 2.4002     | 2.4617     | 2.5193     |   2.3 | 47.35
Comm    | 0.21796    | 0.76745    | 2.2391     |  35.5 | 14.76
Output  | 0          | 0          | 0          |   0.0 |  0.00
Modify  | 0.0026894  | 0.024606   | 0.1041     |  13.1 |  0.47
Other   |            | 1.622      |            |       | 31.20

Nlocal:         4141.9 ave        9565 max        1142 min
Histogram: 192 96 0 0 0 0 64 16 85 27
Nghost:        20376.6 ave       42993 max        7114 min
Histogram: 144 0 72 61 51 8 48 64 0 32
Neighs:        39366.8 ave       66284 max        2760 min
Histogram: 20 44 62 44 29 21 34 74 79 73

Total # of neighbors = 18896060
Ave neighs/atom = 9.5045345
Ave special neighs/atom = 0.14425862
Neighbor list builds = 36
Dangerous builds = 3
Generated 0 of 15 mixed pair_coeff terms from geometric mixing rule
Last active /omp style is bond_style fene/omp
WARNING: More than one fix rigid (src/RIGID/fix_rigid.cpp:712)
WARNING: More than one fix rigid (src/RIGID/fix_rigid.cpp:712)
WARNING: More than one fix rigid (src/RIGID/fix_rigid.cpp:712)
Setting up Verlet run ...
  Unit style    : lj
  Current step  : 1345
  Time step     : 0.005
Per MPI rank memory allocation (min/avg/max) = 18.82 | 30.38 | 51.57 Mbytes
   Step          Temp          PotEng         KinEng         TotEng         Press          Volume           Lx             Ly             Lz      
      1345   1.291442      -0.71343877     0.42456113    -0.28887764    -0.61128808     652213.97      100.74081      100.74081      64.265692    
ERROR: Lost atoms: original 1988110 current 1988109
For more information see https://docs.lammps.org/err0008 (src/thermo.cpp:526)
======================================
Running post-processing...
======================================
Generating convergence plot...
Plot saved to ./output_plots/convergence_plots/walled_slab_support_5beads_10x10x5_rho6_extra_padding43_1.5_1.4_10000000_1.5_1.4_100000_convergence.png
Generating stress profiles...
No stress data found for walled_slab_support_5beads_10x10x5_rho6_extra_padding43_1.5_1.4_10000000_1.5_1.4_100000, skipping stress plots
No volume data found for walled_slab_support_5beads_10x10x5_rho6_extra_padding43_1.5_1.4_10000000_1.5_1.4_100000, skipping volume fraction plots
Generating piston plots...
Error: Piston position file not found: ./output_files/piston_data/piston_position_walled_slab_support_5beads_10x10x5_rho6_extra_padding43_1.5_1.4_10000000_1.5_1.4_100000.dat
Generating computational efficiency plot...
Found data file: ./data_files/walled_slab_support_5beads_10x10x5_rho6_extra_padding43_1.5_1.4_10000000.data
Mobile atoms: 1768802
Entry 'walled_slab_support_5beads_10x10x5_rho6_extra_padding43_1.5_1.4_10000000_1.5_1.4_100000' already exists in tracking file, skipping.
Tracking info written to /jet/home/dpollard/Documents/lammps_work/tracking.txt
Saved /jet/home/dpollard/Documents/lammps_work/time_vs_atoms.png
Saved /jet/home/dpollard/Documents/lammps_work/time_vs_timesteps.png
======================================
Done! Results are in: /jet/home/dpollard/Documents/lammps_runs/slab_with_flow_walled_slab_support_5beads_10x10x5_rho6_extra_padding43_1.5_1.4_10000000_1.5_1.4_20260109_120229
======================================
