======================================
Working directory: /jet/home/dpollard/Documents/lammps_runs/slab_with_flow_walled_slab_support_5beads_10x10x5_rho6_extra_padding43_1.5_1.4_10000000_1.5_1.4_20260115_193108
Trajectory directory (scratch): /ocean/projects/chm250028p/dpollard/lammps_trajectories/slab_with_flow_walled_slab_support_5beads_10x10x5_rho6_extra_padding43_1.5_1.4_10000000_1.5_1.4_20260115_193108
======================================
Running LAMMPS in slab_with_flow with:
  dataname=walled_slab_support_5beads_10x10x5_rho6_extra_padding43_1.5_1.4_10000000
  epsSS=1.5, epsSP=1.4
  nsteps=50000, oldsteps=0, totsteps=50000
SLURM tasks per node: 120
SLURM CPUs per task: 1
SLURM_GPUS_ON_NODE: 
GPUs allocated: 
Running CPU-only with 480 tasks
LAMMPS (22 Jul 2025)
  using 1 OpenMP thread(s) per MPI task
using multi-threaded neighbor list subroutines
Reading data file ...
  orthogonal box = (-6.8704069 -6.8704069 -4.3828458) to (93.870407 93.870407 59.882846)
  8 by 10 by 6 MPI processor grid
  reading atoms ...
  1323878 atoms
  scanning bonds ...
  3 = max bonds/atom
  orthogonal box = (-6.8704069 -6.8704069 -4.3828458) to (93.870407 93.870407 59.882846)
  8 by 10 by 6 MPI processor grid
  reading bonds ...
  143511 bonds
Finding 1-2 1-3 1-4 neighbors ...
  special bond factors lj:    0        0        0       
  special bond factors coul:  0        0        0       
     4 = max # of 1-2 neighbors
     4 = max # of 1-3 neighbors
     8 = max # of 1-4 neighbors
    12 = max # of special neighbors
  special bonds CPU = 0.134 seconds
  read_data CPU = 8.950 seconds
========================================
Flow simulation: walled_slab_support_5beads_10x10x5_rho6_extra_padding43_1.5_1.4_10000000
Interaction: epsSS=1.5, epsSP=1.4
Production steps: 50000
Piston force per bead: -0.1
========================================
126752 atoms in group polymer
310822 atoms in group solvent
109654 atoms in group support
109654 atoms in group piston
666996 atoms in group walls
437574 atoms in group mobile
656882 atoms in group gel_system
Finding 1-2 1-3 1-4 neighbors ...
  special bond factors lj:    0        1        1       
  special bond factors coul:  0        1        1       
     4 = max # of 1-2 neighbors
    12 = max # of special neighbors
  special bonds CPU = 0.044 seconds
  1 rigid bodies with 109654 atoms
  1 rigid bodies with 109654 atoms
  1 rigid bodies with 666996 atoms
========================================
Phase 1: Soft push to resolve solvent-piston overlaps
========================================
Generated 0 of 15 mixed pair_coeff terms from geometric mixing rule
Hybrid pair style last /omp style soft
Last active /omp style is bond_style fene/omp
WARNING: More than one fix rigid (src/RIGID/fix_rigid.cpp:712)
WARNING: More than one fix rigid (src/RIGID/fix_rigid.cpp:712)
WARNING: More than one fix rigid (src/RIGID/fix_rigid.cpp:712)
Neighbor list info ...
  update: every = 1 steps, delay = 0 steps, check = yes
  max neighbors/atom: 2000, page size: 100000
  master list distance cutoff = 2.8
  ghost atom cutoff = 5
  binsize = 1.4, bins = 72 72 46
  2 neighbor lists, perpetual/occasional/extra = 2 0 0
  (1) pair lj/cut, perpetual
      attributes: half, newton on, omp, cut 2.8
      pair build: half/bin/newton/omp
      stencil: half/bin/3d
      bin: standard
  (2) pair soft, perpetual, skip from (1)
      attributes: half, newton on, omp
      pair build: skip/omp
      stencil: none
      bin: none
Setting up Verlet run ...
  Unit style    : lj
  Current step  : 0
  Time step     : 0.005
Per MPI rank memory allocation (min/avg/max) = 16.79 | 23.64 | 39.16 Mbytes
   Step          Temp          PotEng         KinEng         TotEng         Press          Volume           Lx             Ly             Lz      
         0   0             -0.032144261    0             -0.032144261    0.021388102    652213.97      100.74081      100.74081      64.265692    
      1000   1.164402      -0.20198948     0.57730152     0.37531204     2.0089331      652213.97      100.74081      100.74081      64.265692    
Loop time of 28.7523 on 480 procs for 1000 steps with 1323878 atoms

Performance: 15024.888 tau/day, 34.780 timesteps/s, 46.044 Matom-step/s
99.3% CPU use with 480 MPI tasks x 1 OpenMP threads

MPI task timing breakdown:
Section |  min time  |  avg time  |  max time  |%varavg| %total
---------------------------------------------------------------
Pair    | 0.51878    | 1.1243     | 1.8075     |  19.4 |  3.91
Bond    | 0.0034473  | 0.01766    | 0.036794   |   5.5 |  0.06
Neigh   | 23.823     | 24.32      | 24.754     |   4.9 | 84.58
Comm    | 1.0278     | 1.9712     | 3.0234     |  31.8 |  6.86
Output  | 0.0038873  | 0.024699   | 0.04312    |   7.4 |  0.09
Modify  | 0.65431    | 1.056      | 1.68       |  19.1 |  3.67
Other   |            | 0.2384     |            |       |  0.83

Nlocal:        2758.08 ave        5678 max        1150 min
Histogram: 192 0 56 40 0 79 19 30 39 25
Nghost:        14309.8 ave       27886 max        7069 min
Histogram: 144 16 96 62 10 24 96 0 0 32
Neighs:        75040.9 ave      139759 max       22537 min
Histogram: 3 19 132 102 52 64 41 21 20 26

Total # of neighbors = 36019633
Ave neighs/atom = 27.207668
Ave special neighs/atom = 0.21680397
Neighbor list builds = 487
Dangerous builds = 0
Soft push complete - overlaps resolved
========================================
Phase 2: Switching to full LJ interactions
========================================
Generated 0 of 15 mixed pair_coeff terms from geometric mixing rule
Last active /omp style is bond_style fene/omp
WARNING: More than one fix rigid (src/RIGID/fix_rigid.cpp:712)
WARNING: More than one fix rigid (src/RIGID/fix_rigid.cpp:712)
WARNING: More than one fix rigid (src/RIGID/fix_rigid.cpp:712)
Neighbor list info ...
  update: every = 1 steps, delay = 0 steps, check = yes
  max neighbors/atom: 2000, page size: 100000
  master list distance cutoff = 2.8
  ghost atom cutoff = 5
  binsize = 1.4, bins = 72 72 46
  1 neighbor lists, perpetual/occasional/extra = 1 0 0
  (1) pair lj/cut/omp, perpetual
      attributes: half, newton on, omp
      pair build: half/bin/newton/omp
      stencil: half/bin/3d
      bin: standard
Setting up cg style minimization ...
  Unit style    : lj
  Current step  : 1000
Per MPI rank memory allocation (min/avg/max) = 18.78 | 26.14 | 43.39 Mbytes
   Step          Temp          PotEng         KinEng         TotEng         Press          Volume           Lx             Ly             Lz      
      1000   1.164402      -0.32345084     0.57730152     0.25385068     2.2086086      652213.97      100.74081      100.74081      64.265692    
      1483   1.164402      -0.96444632     0.57730152    -0.3871448     -2.1845677      652213.97      100.74081      100.74081      64.265692    
Loop time of 7.20169 on 480 procs for 483 steps with 1323878 atoms

99.3% CPU use with 480 MPI tasks x 1 OpenMP threads

Minimization stats:
  Stopping criterion = energy tolerance
  Energy initial, next-to-last, final = 
    -0.323450837283187 -0.964362977505852 -0.964446322922653
  Force two-norm initial, final = 33796.262 763.18642
  Force max component initial, final = 7715.4509 181.10987
  Final line search alpha, max atom move = 0.00043943363 0.079585765
  Iterations, force evaluations = 483 522

MPI task timing breakdown:
Section |  min time  |  avg time  |  max time  |%varavg| %total
---------------------------------------------------------------
Pair    | 0.040412   | 0.42844    | 0.99575    |  32.2 |  5.95
Bond    | 0.00052333 | 0.0073453  | 0.01358    |   4.3 |  0.10
Neigh   | 5.3257     | 5.4313     | 5.5293     |   2.2 | 75.42
Comm    | 0.38873    | 0.90527    | 1.4186     |  26.9 | 12.57
Output  | 0          | 0          | 0          |   0.0 |  0.00
Modify  | 0.0056475  | 0.016981   | 0.03616    |   6.3 |  0.24
Other   |            | 0.4124     |            |       |  5.73

Nlocal:        2758.08 ave        5658 max        1258 min
Histogram: 192 0 69 27 0 80 36 12 39 25
Nghost:        14325.9 ave       27809 max        7430 min
Histogram: 144 16 96 72 0 24 96 0 0 32
Neighs:        38697.6 ave       65101 max        2175 min
Histogram: 30 50 65 40 7 24 18 40 143 63

Total # of neighbors = 18574846
Ave neighs/atom = 14.030633
Ave special neighs/atom = 0.21680397
Neighbor list builds = 119
Dangerous builds = 2
Generated 0 of 15 mixed pair_coeff terms from geometric mixing rule
Last active /omp style is bond_style fene/omp
WARNING: More than one fix rigid (src/RIGID/fix_rigid.cpp:712)
WARNING: More than one fix rigid (src/RIGID/fix_rigid.cpp:712)
WARNING: More than one fix rigid (src/RIGID/fix_rigid.cpp:712)
Setting up Verlet run ...
  Unit style    : lj
  Current step  : 1483
  Time step     : 0.005
Per MPI rank memory allocation (min/avg/max) = 17.66 | 24.37 | 40.01 Mbytes
   Step          Temp          PotEng         KinEng         TotEng         Press          Volume           Lx             Ly             Lz      
      1483   1.164402      -0.96444632     0.57730152    -0.3871448     -0.69615306     652213.97      100.74081      100.74081      64.265692    
WARNING: Lost atoms: original 1323878 current 1323877
For more information see https://docs.lammps.org/err0008 (src/thermo.cpp:532)
      5000   3.1178585e-46 -0.95579519     1.5458113e-46 -0.95579519    -2.1224476      652213.97      100.74081      100.74081      64.265692    
      6483   1.7946294e-46 -0.96766077     8.8976406e-47 -0.96766077    -2.1077176      652213.97      100.74081      100.74081      64.265692    
Loop time of 42.134 on 480 procs for 5000 steps with 1323877 atoms

Performance: 51264.994 tau/day, 118.669 timesteps/s, 157.103 Matom-step/s
99.4% CPU use with 480 MPI tasks x 1 OpenMP threads

MPI task timing breakdown:
Section |  min time  |  avg time  |  max time  |%varavg| %total
---------------------------------------------------------------
Pair    | 0.14215    | 2.2529     | 3.51       |  68.2 |  5.35
Bond    | 0.0040849  | 0.02415    | 0.042341   |   7.0 |  0.06
Neigh   | 27.808     | 28.387     | 28.915     |   5.4 | 67.37
Comm    | 3.5747     | 7.1109     | 10.602     |  66.8 | 16.88
Output  | 0.019289   | 0.20138    | 0.31598    |  20.9 |  0.48
Modify  | 1.9736     | 3.4535     | 5.6336     |  47.1 |  8.20
Other   |            | 0.704      |            |       |  1.67

Nlocal:        2758.08 ave        5717 max        1255 min
Histogram: 192 0 78 18 0 80 38 11 39 24
Nghost:        14315.4 ave       28283 max        7456 min
Histogram: 144 16 96 72 0 26 94 0 3 29
Neighs:        38145.8 ave       58995 max         954 min
Histogram: 22 19 34 66 51 6 33 13 84 152

Total # of neighbors = 18309966
Ave neighs/atom = 13.830564
Ave special neighs/atom = 0.21680413
Neighbor list builds = 614
Dangerous builds = 106
========================================
Phase 3: Production flow with piston forcing
========================================
  1 rigid bodies with 109654 atoms
Generated 0 of 15 mixed pair_coeff terms from geometric mixing rule
Last active /omp style is bond_style fene/omp
WARNING: More than one fix rigid (src/RIGID/fix_rigid.cpp:712)
WARNING: More than one fix rigid (src/RIGID/fix_rigid.cpp:712)
WARNING: More than one fix rigid (src/RIGID/fix_rigid.cpp:712)
Setting up Verlet run ...
  Unit style    : lj
  Current step  : 6483
  Time step     : 0.005
Per MPI rank memory allocation (min/avg/max) = 16.29 | 22.92 | 38.14 Mbytes
   Step          Temp          PotEng         KinEng         TotEng         Press          Volume           Lx             Ly             Lz      
      6483   1.7946335e-46 -0.96766077     8.8976406e-47 -0.96766077    -2.0981145      652213.97      100.74081      100.74081      64.265692    
Loop time of 1.19793e-05 on 480 procs for 0 steps with 1323877 atoms

109.5% CPU use with 480 MPI tasks x 1 OpenMP threads

MPI task timing breakdown:
Section |  min time  |  avg time  |  max time  |%varavg| %total
---------------------------------------------------------------
Pair    | 0          | 0          | 0          |   0.0 |  0.00
Bond    | 0          | 0          | 0          |   0.0 |  0.00
Neigh   | 0          | 0          | 0          |   0.0 |  0.00
Comm    | 0          | 0          | 0          |   0.0 |  0.00
Output  | 0          | 0          | 0          |   0.0 |  0.00
Modify  | 0          | 0          | 0          |   0.0 |  0.00
Other   |            | 1.198e-05  |            |       |100.00

Nlocal:        2758.08 ave        5717 max        1255 min
Histogram: 192 0 77 19 0 80 37 12 39 24
Nghost:        14315.8 ave       28285 max        7459 min
Histogram: 144 16 96 72 0 26 94 0 3 29
Neighs:        38152.4 ave       59201 max         972 min
Histogram: 22 19 35 66 50 7 33 13 90 145

Total # of neighbors = 18313134
Ave neighs/atom = 13.832957
Ave special neighs/atom = 0.21680413
Neighbor list builds = 0
Dangerous builds = 0
ERROR: Variable Rg_xx: Invalid special function max() in variable formula (src/variable.cpp:4570)
======================================
Running post-processing...
======================================
Generating convergence plot...
Plot saved to ./output_plots/convergence_plots/walled_slab_support_5beads_10x10x5_rho6_extra_padding43_1.5_1.4_10000000_1.5_1.4_50000_convergence.png
Generating stress profiles...
No stress data found for walled_slab_support_5beads_10x10x5_rho6_extra_padding43_1.5_1.4_10000000_1.5_1.4_50000, skipping stress plots
No volume data found for walled_slab_support_5beads_10x10x5_rho6_extra_padding43_1.5_1.4_10000000_1.5_1.4_50000, skipping volume fraction plots
Generating piston plots...
Error: Piston position file not found: ./output_files/piston_data/piston_position_walled_slab_support_5beads_10x10x5_rho6_extra_padding43_1.5_1.4_10000000_1.5_1.4_50000.dat
Generating computational efficiency plot...
Found data file: ./data_files/walled_slab_support_5beads_10x10x5_rho6_extra_padding43_1.5_1.4_10000000.data
Mobile atoms: 1104570
Entry 'walled_slab_support_5beads_10x10x5_rho6_extra_padding43_1.5_1.4_10000000_1.5_1.4_50000' already exists in tracking file, skipping.
Tracking info written to /jet/home/dpollard/Documents/lammps_work/tracking.txt
Saved /jet/home/dpollard/Documents/lammps_work/time_vs_atoms.png
Saved /jet/home/dpollard/Documents/lammps_work/time_vs_timesteps.png
======================================
Done! Results are in: /jet/home/dpollard/Documents/lammps_runs/slab_with_flow_walled_slab_support_5beads_10x10x5_rho6_extra_padding43_1.5_1.4_10000000_1.5_1.4_20260115_193108
======================================
