======================================
Working directory: /jet/home/dpollard/Documents/lammps_runs/slab_with_flow_walled_slab_support_5beads_10x10x5_rho6_extra_padding43_1.5_1.4_10000000_1.5_1.4_20260116_130957
Trajectory directory (scratch): /ocean/projects/chm250028p/dpollard/lammps_trajectories/slab_with_flow_walled_slab_support_5beads_10x10x5_rho6_extra_padding43_1.5_1.4_10000000_1.5_1.4_20260116_130957
======================================
Running LAMMPS in slab_with_flow with:
  dataname=walled_slab_support_5beads_10x10x5_rho6_extra_padding43_1.5_1.4_10000000
  epsSS=1.5, epsSP=1.4
  nsteps=50000, oldsteps=0, totsteps=50000
SLURM tasks per node: 120
SLURM CPUs per task: 1
SLURM_GPUS_ON_NODE: 
GPUs allocated: 
Running CPU-only with 480 tasks
LAMMPS (22 Jul 2025)
  using 1 OpenMP thread(s) per MPI task
using multi-threaded neighbor list subroutines
Reading data file ...
  orthogonal box = (-6.8704069 -6.8704069 -4.3828458) to (93.870407 93.870407 59.882846)
  8 by 10 by 6 MPI processor grid
  reading atoms ...
  1323878 atoms
  scanning bonds ...
  3 = max bonds/atom
  orthogonal box = (-6.8704069 -6.8704069 -4.3828458) to (93.870407 93.870407 59.882846)
  8 by 10 by 6 MPI processor grid
  reading bonds ...
  143511 bonds
Finding 1-2 1-3 1-4 neighbors ...
  special bond factors lj:    0        0        0       
  special bond factors coul:  0        0        0       
     4 = max # of 1-2 neighbors
     4 = max # of 1-3 neighbors
     8 = max # of 1-4 neighbors
    12 = max # of special neighbors
  special bonds CPU = 0.131 seconds
  read_data CPU = 3.888 seconds
========================================
Flow simulation: walled_slab_support_5beads_10x10x5_rho6_extra_padding43_1.5_1.4_10000000
Interaction: epsSS=1.5, epsSP=1.4
Production steps: 50000
Piston force per bead: -0.1
========================================
126752 atoms in group polymer
310822 atoms in group solvent
109654 atoms in group support
109654 atoms in group piston
666996 atoms in group walls
437574 atoms in group mobile
656882 atoms in group gel_system
Finding 1-2 1-3 1-4 neighbors ...
  special bond factors lj:    0        1        1       
  special bond factors coul:  0        1        1       
     4 = max # of 1-2 neighbors
    12 = max # of special neighbors
  special bonds CPU = 0.043 seconds
  1 rigid bodies with 109654 atoms
  1 rigid bodies with 109654 atoms
  1 rigid bodies with 666996 atoms
========================================
Phase 1: Soft push to resolve solvent-piston overlaps
========================================
Generated 0 of 15 mixed pair_coeff terms from geometric mixing rule
Hybrid pair style last /omp style soft
Last active /omp style is bond_style fene/omp
WARNING: More than one fix rigid (src/RIGID/fix_rigid.cpp:712)
WARNING: More than one fix rigid (src/RIGID/fix_rigid.cpp:712)
WARNING: More than one fix rigid (src/RIGID/fix_rigid.cpp:712)
Neighbor list info ...
  update: every = 1 steps, delay = 0 steps, check = yes
  max neighbors/atom: 2000, page size: 100000
  master list distance cutoff = 2.8
  ghost atom cutoff = 5
  binsize = 1.4, bins = 72 72 46
  2 neighbor lists, perpetual/occasional/extra = 2 0 0
  (1) pair lj/cut, perpetual
      attributes: half, newton on, omp, cut 2.8
      pair build: half/bin/newton/omp
      stencil: half/bin/3d
      bin: standard
  (2) pair soft, perpetual, skip from (1)
      attributes: half, newton on, omp
      pair build: skip/omp
      stencil: none
      bin: none
Setting up Verlet run ...
  Unit style    : lj
  Current step  : 0
  Time step     : 0.005
Per MPI rank memory allocation (min/avg/max) = 16.79 | 23.64 | 39.16 Mbytes
   Step          Temp          PotEng         KinEng         TotEng         Press          Volume           Lx             Ly             Lz      
         0   0             -0.032144261    0             -0.032144261    0.021388102    652213.97      100.74081      100.74081      64.265692    
      1000   1.164402      -0.20198948     0.57730152     0.37531204     2.0089331      652213.97      100.74081      100.74081      64.265692    
Loop time of 29.0304 on 480 procs for 1000 steps with 1323878 atoms

Performance: 14880.951 tau/day, 34.447 timesteps/s, 45.603 Matom-step/s
99.3% CPU use with 480 MPI tasks x 1 OpenMP threads

MPI task timing breakdown:
Section |  min time  |  avg time  |  max time  |%varavg| %total
---------------------------------------------------------------
Pair    | 0.52146    | 1.1258     | 1.8626     |  19.4 |  3.88
Bond    | 0.0031692  | 0.017509   | 0.03112    |   5.3 |  0.06
Neigh   | 23.812     | 24.285     | 24.728     |   4.9 | 83.65
Comm    | 1.038      | 1.9716     | 3.0815     |  32.5 |  6.79
Output  | 0.003865   | 0.024743   | 0.04347    |   7.5 |  0.09
Modify  | 0.81673    | 1.3928     | 2.0233     |  19.1 |  4.80
Other   |            | 0.2132     |            |       |  0.73

Nlocal:        2758.08 ave        5678 max        1150 min
Histogram: 192 0 56 40 0 79 19 30 39 25
Nghost:        14309.8 ave       27886 max        7069 min
Histogram: 144 16 96 62 10 24 96 0 0 32
Neighs:        75040.9 ave      139759 max       22537 min
Histogram: 3 19 132 102 52 64 41 21 20 26

Total # of neighbors = 36019633
Ave neighs/atom = 27.207668
Ave special neighs/atom = 0.21680397
Neighbor list builds = 487
Dangerous builds = 0
Soft push complete - overlaps resolved
========================================
Phase 2: Switching to full LJ interactions
========================================
Generated 0 of 15 mixed pair_coeff terms from geometric mixing rule
Last active /omp style is bond_style fene/omp
WARNING: More than one fix rigid (src/RIGID/fix_rigid.cpp:712)
WARNING: More than one fix rigid (src/RIGID/fix_rigid.cpp:712)
WARNING: More than one fix rigid (src/RIGID/fix_rigid.cpp:712)
Neighbor list info ...
  update: every = 1 steps, delay = 0 steps, check = yes
  max neighbors/atom: 2000, page size: 100000
  master list distance cutoff = 2.8
  ghost atom cutoff = 5
  binsize = 1.4, bins = 72 72 46
  1 neighbor lists, perpetual/occasional/extra = 1 0 0
  (1) pair lj/cut/omp, perpetual
      attributes: half, newton on, omp
      pair build: half/bin/newton/omp
      stencil: half/bin/3d
      bin: standard
Setting up cg style minimization ...
  Unit style    : lj
  Current step  : 1000
Per MPI rank memory allocation (min/avg/max) = 18.78 | 26.14 | 43.39 Mbytes
   Step          Temp          PotEng         KinEng         TotEng         Press          Volume           Lx             Ly             Lz      
      1000   1.164402      -0.32345084     0.57730152     0.25385068     2.2086086      652213.97      100.74081      100.74081      64.265692    
      1483   1.164402      -0.96444632     0.57730152    -0.3871448     -2.1845677      652213.97      100.74081      100.74081      64.265692    
Loop time of 7.19415 on 480 procs for 483 steps with 1323878 atoms

99.3% CPU use with 480 MPI tasks x 1 OpenMP threads

Minimization stats:
  Stopping criterion = energy tolerance
  Energy initial, next-to-last, final = 
    -0.323450837283187 -0.964362977505852 -0.964446322922653
  Force two-norm initial, final = 33796.262 763.18642
  Force max component initial, final = 7715.4509 181.10987
  Final line search alpha, max atom move = 0.00043943363 0.079585765
  Iterations, force evaluations = 483 522

MPI task timing breakdown:
Section |  min time  |  avg time  |  max time  |%varavg| %total
---------------------------------------------------------------
Pair    | 0.041623   | 0.42839    | 0.80351    |  31.7 |  5.95
Bond    | 0.00078351 | 0.0073527  | 0.018393   |   4.3 |  0.10
Neigh   | 5.3318     | 5.4328     | 5.5326     |   2.2 | 75.52
Comm    | 0.42529    | 0.89831    | 1.4222     |  27.9 | 12.49
Output  | 0          | 0          | 0          |   0.0 |  0.00
Modify  | 0.0056003  | 0.01707    | 0.036366   |   6.4 |  0.24
Other   |            | 0.4103     |            |       |  5.70

Nlocal:        2758.08 ave        5658 max        1258 min
Histogram: 192 0 69 27 0 80 36 12 39 25
Nghost:        14325.9 ave       27809 max        7430 min
Histogram: 144 16 96 72 0 24 96 0 0 32
Neighs:        38697.6 ave       65101 max        2175 min
Histogram: 30 50 65 40 7 24 18 40 143 63

Total # of neighbors = 18574846
Ave neighs/atom = 14.030633
Ave special neighs/atom = 0.21680397
Neighbor list builds = 119
Dangerous builds = 2
Generated 0 of 15 mixed pair_coeff terms from geometric mixing rule
Last active /omp style is bond_style fene/omp
WARNING: More than one fix rigid (src/RIGID/fix_rigid.cpp:712)
WARNING: More than one fix rigid (src/RIGID/fix_rigid.cpp:712)
WARNING: More than one fix rigid (src/RIGID/fix_rigid.cpp:712)
Setting up Verlet run ...
  Unit style    : lj
  Current step  : 1483
  Time step     : 0.005
Per MPI rank memory allocation (min/avg/max) = 17.66 | 24.37 | 40.01 Mbytes
   Step          Temp          PotEng         KinEng         TotEng         Press          Volume           Lx             Ly             Lz      
      1483   1.164402      -0.96444632     0.57730152    -0.3871448     -0.69615306     652213.97      100.74081      100.74081      64.265692    
WARNING: Lost atoms: original 1323878 current 1323877
For more information see https://docs.lammps.org/err0008 (src/thermo.cpp:532)
      5000   3.1178585e-46 -0.95579519     1.5458113e-46 -0.95579519    -2.1224476      652213.97      100.74081      100.74081      64.265692    
      6483   1.7946294e-46 -0.96766077     8.8976406e-47 -0.96766077    -2.1077176      652213.97      100.74081      100.74081      64.265692    
Loop time of 41.7766 on 480 procs for 5000 steps with 1323877 atoms

Performance: 51703.559 tau/day, 119.684 timesteps/s, 158.447 Matom-step/s
99.3% CPU use with 480 MPI tasks x 1 OpenMP threads

MPI task timing breakdown:
Section |  min time  |  avg time  |  max time  |%varavg| %total
---------------------------------------------------------------
Pair    | 0.14018    | 2.2519     | 3.5084     |  68.2 |  5.39
Bond    | 0.0042229  | 0.024235   | 0.043162   |   7.1 |  0.06
Neigh   | 27.773     | 28.309     | 28.869     |   5.4 | 67.76
Comm    | 3.4803     | 7.0536     | 10.603     |  67.1 | 16.88
Output  | 0.019322   | 0.16741    | 0.27288    |  19.2 |  0.40
Modify  | 1.8284     | 3.3169     | 5.5227     |  48.0 |  7.94
Other   |            | 0.6538     |            |       |  1.56

Nlocal:        2758.08 ave        5717 max        1255 min
Histogram: 192 0 78 18 0 80 38 11 39 24
Nghost:        14315.4 ave       28283 max        7456 min
Histogram: 144 16 96 72 0 26 94 0 3 29
Neighs:        38145.8 ave       58995 max         954 min
Histogram: 22 19 34 66 51 6 33 13 84 152

Total # of neighbors = 18309966
Ave neighs/atom = 13.830564
Ave special neighs/atom = 0.21680413
Neighbor list builds = 614
Dangerous builds = 106
========================================
Phase 3: Production flow with piston forcing
========================================
  1 rigid bodies with 109654 atoms
Generated 0 of 15 mixed pair_coeff terms from geometric mixing rule
Last active /omp style is bond_style fene/omp
WARNING: More than one fix rigid (src/RIGID/fix_rigid.cpp:712)
WARNING: More than one fix rigid (src/RIGID/fix_rigid.cpp:712)
WARNING: More than one fix rigid (src/RIGID/fix_rigid.cpp:712)
Setting up Verlet run ...
  Unit style    : lj
  Current step  : 6483
  Time step     : 0.005
Per MPI rank memory allocation (min/avg/max) = 16.29 | 22.92 | 38.14 Mbytes
   Step          Temp          PotEng         KinEng         TotEng         Press          Volume           Lx             Ly             Lz      
      6483   1.7946335e-46 -0.96766077     8.8976406e-47 -0.96766077    -2.0981145      652213.97      100.74081      100.74081      64.265692    
Loop time of 1.31299e-05 on 480 procs for 0 steps with 1323877 atoms

104.2% CPU use with 480 MPI tasks x 1 OpenMP threads

MPI task timing breakdown:
Section |  min time  |  avg time  |  max time  |%varavg| %total
---------------------------------------------------------------
Pair    | 0          | 0          | 0          |   0.0 |  0.00
Bond    | 0          | 0          | 0          |   0.0 |  0.00
Neigh   | 0          | 0          | 0          |   0.0 |  0.00
Comm    | 0          | 0          | 0          |   0.0 |  0.00
Output  | 0          | 0          | 0          |   0.0 |  0.00
Modify  | 0          | 0          | 0          |   0.0 |  0.00
Other   |            | 1.313e-05  |            |       |100.00

Nlocal:        2758.08 ave        5717 max        1255 min
Histogram: 192 0 77 19 0 80 37 12 39 24
Nghost:        14315.8 ave       28285 max        7459 min
Histogram: 144 16 96 72 0 26 94 0 3 29
Neighs:        38152.4 ave       59201 max         972 min
Histogram: 22 19 35 66 50 7 33 13 90 145

Total # of neighbors = 18313134
Ave neighs/atom = 13.832957
Ave special neighs/atom = 0.21680413
Neighbor list builds = 0
Dangerous builds = 0
this is negative for some reason: -1.06363947254653
hw_x = 39.5747925999719
hw_y = 25.4352569030979
ERROR on proc 0: Variable hw_z: Sqrt of negative value in variable formula (src/variable.cpp:3825)
ERROR on proc 19: Variable hw_z: Sqrt of negative value in variable formula (src/variable.cpp:3825)
ERROR on proc 15: Variable hw_z: Sqrt of negative value in variable formula (src/variable.cpp:3825)
ERROR on proc 109: Variable hw_z: Sqrt of negative value in variable formula (src/variable.cpp:3825)
ERROR on proc 98: Variable hw_z: Sqrt of negative value in variable formula (src/variable.cpp:3825)
ERROR on proc 16: Variable hw_z: Sqrt of negative value in variable formula (src/variable.cpp:3825)
ERROR on proc 114: Variable hw_z: Sqrt of negative value in variable formula (src/variable.cpp:3825)
ERROR on proc 8: Variable hw_z: Sqrt of negative value in variable formula (src/variable.cpp:3825)
ERROR on proc 32: Variable hw_z: Sqrt of negative value in variable formula (src/variable.cpp:3825)
ERROR on proc 34: Variable hw_z: Sqrt of negative value in variable formula (src/variable.cpp:3825)
ERROR on proc 6: Variable hw_z: Sqrt of negative value in variable formula (src/variable.cpp:3825)
ERROR on proc 4: Variable hw_z: Sqrt of negative value in variable formula (src/variable.cpp:3825)
ERROR on proc 18: Variable hw_z: Sqrt of negative value in variable formula (src/variable.cpp:3825)
ERROR on proc 10: Variable hw_z: Sqrt of negative value in variable formula (src/variable.cpp:3825)
ERROR on proc 57: Variable hw_z: Sqrt of negative value in variable formula (src/variable.cpp:3825)
ERROR on proc 58: Variable hw_z: Sqrt of negative value in variable formula (src/variable.cpp:3825)
ERROR on proc 17: Variable hw_z: Sqrt of negative value in variable formula (src/variable.cpp:3825)
ERROR on proc 22: Variable hw_z: Sqrt of negative value in variable formula (src/variable.cpp:3825)
ERROR on proc 27: Variable hw_z: Sqrt of negative value in variable formula (src/variable.cpp:3825)
ERROR on proc 64: Variable hw_z: Sqrt of negative value in variable formula (src/variable.cpp:3825)
ERROR on proc 79: Variable hw_z: Sqrt of negative value in variable formula (src/variable.cpp:3825)
ERROR on proc 96: Variable hw_z: Sqrt of negative value in variable formula (src/variable.cpp:3825)
ERROR on proc 59: Variable hw_z: Sqrt of negative value in variable formula (src/variable.cpp:3825)
ERROR on proc 65: Variable hw_z: Sqrt of negative value in variable formula (src/variable.cpp:3825)
ERROR on proc 25: Variable hw_z: Sqrt of negative value in variable formula (src/variable.cpp:3825)
ERROR on proc 82: Variable hw_z: Sqrt of negative value in variable formula (src/variable.cpp:3825)
ERROR on proc 83: Variable hw_z: Sqrt of negative value in variable formula (src/variable.cpp:3825)
ERROR on proc 80: Variable hw_z: Sqrt of negative value in variable formula (src/variable.cpp:3825)
ERROR on proc 81: Variable hw_z: Sqrt of negative value in variable formula (src/variable.cpp:3825)
ERROR on proc 67: Variable hw_z: Sqrt of negative value in variable formula (src/variable.cpp:3825)
ERROR on proc 51: Variable hw_z: Sqrt of negative value in variable formula (src/variable.cpp:3825)
ERROR on proc 50: Variable hw_z: Sqrt of negative value in variable formula (src/variable.cpp:3825)
ERROR on proc 78: Variable hw_z: Sqrt of negative value in variable formula (src/variable.cpp:3825)
ERROR on proc 2: Variable hw_z: Sqrt of negative value in variable formula (src/variable.cpp:3825)
ERROR on proc 45: Variable hw_z: Sqrt of negative value in variable formula (src/variable.cpp:3825)
ERROR on proc 100: Variable hw_z: Sqrt of negative value in variable formula (src/variable.cpp:3825)
ERROR on proc 41: Variable hw_z: Sqrt of negative value in variable formula (src/variable.cpp:3825)
ERROR on proc 44: Variable hw_z: Sqrt of negative value in variable formula (src/variable.cpp:3825)
ERROR on proc 102: Variable hw_z: Sqrt of negative value in variable formula (src/variable.cpp:3825)
ERROR on proc 53: Variable hw_z: Sqrt of negative value in variable formula (src/variable.cpp:3825)
ERROR on proc 77: Variable hw_z: Sqrt of negative value in variable formula (src/variable.cpp:3825)
ERROR on proc 110: Variable hw_z: Sqrt of negative value in variable formula (src/variable.cpp:3825)
ERROR on proc 28: Variable hw_z: Sqrt of negative value in variable formula (src/variable.cpp:3825)
ERROR on proc 119: Variable hw_z: Sqrt of negative value in variable formula (src/variable.cpp:3825)
ERROR on proc 106: Variable hw_z: Sqrt of negative value in variable formula (src/variable.cpp:3825)
ERROR on proc 104: Variable hw_z: Sqrt of negative value in variable formula (src/variable.cpp:3825)
ERROR on proc 84: Variable hw_z: Sqrt of negative value in variable formula (src/variable.cpp:3825)
ERROR on proc 87: Variable hw_z: Sqrt of negative value in variable formula (src/variable.cpp:3825)
ERROR on proc 86: Variable hw_z: Sqrt of negative value in variable formula (src/variable.cpp:3825)
ERROR on proc 90: Variable hw_z: Sqrt of negative value in variable formula (src/variable.cpp:3825)
ERROR on proc 88: Variable hw_z: Sqrt of negative value in variable formula (src/variable.cpp:3825)
ERROR on proc 92: Variable hw_z: Sqrt of negative value in variable formula (src/variable.cpp:3825)
ERROR on proc 76: Variable hw_z: Sqrt of negative value in variable formula (src/variable.cpp:3825)
ERROR on proc 93: Variable hw_z: Sqrt of negative value in variable formula (src/variable.cpp:3825)
ERROR on proc 117: Variable hw_z: Sqrt of negative value in variable formula (src/variable.cpp:3825)
ERROR on proc 72: Variable hw_z: Sqrt of negative value in variable formula (src/variable.cpp:3825)
ERROR on proc 60: Variable hw_z: Sqrt of negative value in variable formula (src/variable.cpp:3825)
ERROR on proc 61: Variable hw_z: Sqrt of negative value in variable formula (src/variable.cpp:3825)
ERROR on proc 69: Variable hw_z: Sqrt of negative value in variable formula (src/variable.cpp:3825)
ERROR on proc 118: Variable hw_z: Sqrt of negative value in variable formula (src/variable.cpp:3825)
ERROR on proc 105: Variable hw_z: Sqrt of negative value in variable formula (src/variable.cpp:3825)
ERROR on proc 71: Variable hw_z: Sqrt of negative value in variable formula (src/variable.cpp:3825)
ERROR on proc 70: Variable hw_z: Sqrt of negative value in variable formula (src/variable.cpp:3825)
ERROR on proc 91: Variable hw_z: Sqrt of negative value in variable formula (src/variable.cpp:3825)
ERROR on proc 55: Variable hw_z: Sqrt of negative value in variable formula (src/variable.cpp:3825)
ERROR on proc 13: Variable hw_z: Sqrt of negative value in variable formula (src/variable.cpp:3825)
ERROR on proc 103: Variable hw_z: Sqrt of negative value in variable formula (src/variable.cpp:3825)
ERROR on proc 43: Variable hw_z: Sqrt of negative value in variable formula (src/variable.cpp:3825)
ERROR on proc 89: Variable hw_z: Sqrt of negative value in variable formula (src/variable.cpp:3825)
ERROR on proc 52: Variable hw_z: Sqrt of negative value in variable formula (src/variable.cpp:3825)
ERROR on proc 62: Variable hw_z: Sqrt of negative value in variable formula (src/variable.cpp:3825)
ERROR on proc 113: Variable hw_z: Sqrt of negative value in variable formula (src/variable.cpp:3825)
ERROR on proc 3: Variable hw_z: Sqrt of negative value in variable formula (src/variable.cpp:3825)
ERROR on proc 9: Variable hw_z: Sqrt of negative value in variable formula (src/variable.cpp:3825)
ERROR on proc 73: Variable hw_z: Sqrt of negative value in variable formula (src/variable.cpp:3825)
ERROR on proc 56: Variable hw_z: Sqrt of negative value in variable formula (src/variable.cpp:3825)
ERROR on proc 12: Variable hw_z: Sqrt of negative value in variable formula (src/variable.cpp:3825)
ERROR on proc 35: Variable hw_z: Sqrt of negative value in variable formula (src/variable.cpp:3825)
ERROR on proc 33: Variable hw_z: Sqrt of negative value in variable formula (src/variable.cpp:3825)
ERROR on proc 95: Variable hw_z: Sqrt of negative value in variable formula (src/variable.cpp:3825)
ERROR on proc 11: Variable hw_z: Sqrt of negative value in variable formula (src/variable.cpp:3825)
ERROR on proc 94: Variable hw_z: Sqrt of negative value in variable formula (src/variable.cpp:3825)
ERROR on proc 5: Variable hw_z: Sqrt of negative value in variable formula (src/variable.cpp:3825)
ERROR on proc 97: Variable hw_z: Sqrt of negative value in variable formula (src/variable.cpp:3825)
ERROR on proc 47: Variable hw_z: Sqrt of negative value in variable formula (src/variable.cpp:3825)
ERROR on proc 26: Variable hw_z: Sqrt of negative value in variable formula (src/variable.cpp:3825)
ERROR on proc 24: Variable hw_z: Sqrt of negative value in variable formula (src/variable.cpp:3825)
ERROR on proc 7: Variable hw_z: Sqrt of negative value in variable formula (src/variable.cpp:3825)
ERROR on proc 40: Variable hw_z: Sqrt of negative value in variable formula (src/variable.cpp:3825)
ERROR on proc 99: Variable hw_z: Sqrt of negative value in variable formula (src/variable.cpp:3825)
ERROR on proc 21: Variable hw_z: Sqrt of negative value in variable formula (src/variable.cpp:3825)
ERROR on proc 85: Variable hw_z: Sqrt of negative value in variable formula (src/variable.cpp:3825)
ERROR on proc 101: Variable hw_z: Sqrt of negative value in variable formula (src/variable.cpp:3825)
ERROR on proc 31: Variable hw_z: Sqrt of negative value in variable formula (src/variable.cpp:3825)
ERROR on proc 29: Variable hw_z: Sqrt of negative value in variable formula (src/variable.cpp:3825)
ERROR on proc 68: Variable hw_z: Sqrt of negative value in variable formula (src/variable.cpp:3825)
ERROR on proc 108: Variable hw_z: Sqrt of negative value in variable formula (src/variable.cpp:3825)
ERROR on proc 116: Variable hw_z: Sqrt of negative value in variable formula (src/variable.cpp:3825)
ERROR on proc 111: Variable hw_z: Sqrt of negative value in variable formula (src/variable.cpp:3825)
ERROR on proc 75: Variable hw_z: Sqrt of negative value in variable formula (src/variable.cpp:3825)
ERROR on proc 74: Variable hw_z: Sqrt of negative value in variable formula (src/variable.cpp:3825)
ERROR on proc 46: Variable hw_z: Sqrt of negative value in variable formula (src/variable.cpp:3825)
ERROR on proc 1: Variable hw_z: Sqrt of negative value in variable formula (src/variable.cpp:3825)
ERROR on proc 38: Variable hw_z: Sqrt of negative value in variable formula (src/variable.cpp:3825)
ERROR on proc 36: Variable hw_z: Sqrt of negative value in variable formula (src/variable.cpp:3825)
ERROR on proc 54: Variable hw_z: Sqrt of negative value in variable formula (src/variable.cpp:3825)
ERROR on proc 112: Variable hw_z: Sqrt of negative value in variable formula (src/variable.cpp:3825)
ERROR on proc 39: Variable hw_z: Sqrt of negative value in variable formula (src/variable.cpp:3825)
ERROR on proc 115: Variable hw_z: Sqrt of negative value in variable formula (src/variable.cpp:3825)
ERROR on proc 30: Variable hw_z: Sqrt of negative value in variable formula (src/variable.cpp:3825)
ERROR on proc 42: Variable hw_z: Sqrt of negative value in variable formula (src/variable.cpp:3825)
ERROR on proc 23: Variable hw_z: Sqrt of negative value in variable formula (src/variable.cpp:3825)
ERROR on proc 66: Variable hw_z: Sqrt of negative value in variable formula (src/variable.cpp:3825)
ERROR on proc 49: Variable hw_z: Sqrt of negative value in variable formula (src/variable.cpp:3825)
ERROR on proc 14: Variable hw_z: Sqrt of negative value in variable formula (src/variable.cpp:3825)
ERROR on proc 48: Variable hw_z: Sqrt of negative value in variable formula (src/variable.cpp:3825)
ERROR on proc 20: Variable hw_z: Sqrt of negative value in variable formula (src/variable.cpp:3825)
ERROR on proc 63: Variable hw_z: Sqrt of negative value in variable formula (src/variable.cpp:3825)
ERROR on proc 107: Variable hw_z: Sqrt of negative value in variable formula (src/variable.cpp:3825)
ERROR on proc 37: Variable hw_z: Sqrt of negative value in variable formula (src/variable.cpp:3825)
ERROR on proc 476: Variable hw_z: Sqrt of negative value in variable formula (src/variable.cpp:3825)
ERROR on proc 331: Variable hw_z: Sqrt of negative value in variable formula (src/variable.cpp:3825)
ERROR on proc 479: Variable hw_z: Sqrt of negative value in variable formula (src/variable.cpp:3825)
ERROR on proc 329: Variable hw_z: Sqrt of negative value in variable formula (src/variable.cpp:3825)
ERROR on proc 478: Variable hw_z: Sqrt of negative value in variable formula (src/variable.cpp:3825)
ERROR on proc 330: Variable hw_z: Sqrt of negative value in variable formula (src/variable.cpp:3825)
ERROR on proc 464: Variable hw_z: Sqrt of negative value in variable formula (src/variable.cpp:3825)
ERROR on proc 256: Variable hw_z: Sqrt of negative value in variable formula (src/variable.cpp:3825)
ERROR on proc 439: Variable hw_z: Sqrt of negative value in variable formula (src/variable.cpp:3825)
ERROR on proc 272: Variable hw_z: Sqrt of negative value in variable formula (src/variable.cpp:3825)
ERROR on proc 465: Variable hw_z: Sqrt of negative value in variable formula (src/variable.cpp:3825)
ERROR on proc 266: Variable hw_z: Sqrt of negative value in variable formula (src/variable.cpp:3825)
ERROR on proc 456: Variable hw_z: Sqrt of negative value in variable formula (src/variable.cpp:3825)
ERROR on proc 262: Variable hw_z: Sqrt of negative value in variable formula (src/variable.cpp:3825)
ERROR on proc 431: Variable hw_z: Sqrt of negative value in variable formula (src/variable.cpp:3825)
ERROR on proc 240: Variable hw_z: Sqrt of negative value in variable formula (src/variable.cpp:3825)
ERROR on proc 429: Variable hw_z: Sqrt of negative value in variable formula (src/variable.cpp:3825)
ERROR on proc 349: Variable hw_z: Sqrt of negative value in variable formula (src/variable.cpp:3825)
ERROR on proc 430: Variable hw_z: Sqrt of negative value in variable formula (src/variable.cpp:3825)
ERROR on proc 348: Variable hw_z: Sqrt of negative value in variable formula (src/variable.cpp:3825)
ERROR on proc 448: Variable hw_z: Sqrt of negative value in variable formula (src/variable.cpp:3825)
ERROR on proc 317: Variable hw_z: Sqrt of negative value in variable formula (src/variable.cpp:3825)
ERROR on proc 470: Variable hw_z: Sqrt of negative value in variable formula (src/variable.cpp:3825)
ERROR on proc 303: Variable hw_z: Sqrt of negative value in variable formula (src/variable.cpp:3825)
ERROR on proc 372: Variable hw_z: Sqrt of negative value in variable formula (src/variable.cpp:3825)
ERROR on proc 297: Variable hw_z: Sqrt of negative value in variable formula (src/variable.cpp:3825)
ERROR on proc 414: Variable hw_z: Sqrt of negative value in variable formula (src/variable.cpp:3825)
ERROR on proc 296: Variable hw_z: Sqrt of negative value in variable formula (src/variable.cpp:3825)
ERROR on proc 411: Variable hw_z: Sqrt of negative value in variable formula (src/variable.cpp:3825)
ERROR on proc 299: Variable hw_z: Sqrt of negative value in variable formula (src/variable.cpp:3825)
ERROR on proc 375: Variable hw_z: Sqrt of negative value in variable formula (src/variable.cpp:3825)
ERROR on proc 357: Variable hw_z: Sqrt of negative value in variable formula (src/variable.cpp:3825)
ERROR on proc 428: Variable hw_z: Sqrt of negative value in variable formula (src/variable.cpp:3825)
ERROR on proc 356: Variable hw_z: Sqrt of negative value in variable formula (src/variable.cpp:3825)
ERROR on proc 436: Variable hw_z: Sqrt of negative value in variable formula (src/variable.cpp:3825)
ERROR on proc 358: Variable hw_z: Sqrt of negative value in variable formula (src/variable.cpp:3825)
ERROR on proc 438: Variable hw_z: Sqrt of negative value in variable formula (src/variable.cpp:3825)
ERROR on proc 319: Variable hw_z: Sqrt of negative value in variable formula (src/variable.cpp:3825)
ERROR on proc 447: Variable hw_z: Sqrt of negative value in variable formula (src/variable.cpp:3825)
ERROR on proc 352: Variable hw_z: Sqrt of negative value in variable formula (src/variable.cpp:3825)
ERROR on proc 450: Variable hw_z: Sqrt of negative value in variable formula (src/variable.cpp:3825)
ERROR on proc 328: Variable hw_z: Sqrt of negative value in variable formula (src/variable.cpp:3825)
ERROR on proc 469: Variable hw_z: Sqrt of negative value in variable formula (src/variable.cpp:3825)
ERROR on proc 308: Variable hw_z: Sqrt of negative value in variable formula (src/variable.cpp:3825)
ERROR on proc 471: Variable hw_z: Sqrt of negative value in variable formula (src/variable.cpp:3825)
ERROR on proc 310: Variable hw_z: Sqrt of negative value in variable formula (src/variable.cpp:3825)
ERROR on proc 445: Variable hw_z: Sqrt of negative value in variable formula (src/variable.cpp:3825)
ERROR on proc 309: Variable hw_z: Sqrt of negative value in variable formula (src/variable.cpp:3825)
ERROR on proc 421: Variable hw_z: Sqrt of negative value in variable formula (src/variable.cpp:3825)
ERROR on proc 350: Variable hw_z: Sqrt of negative value in variable formula (src/variable.cpp:3825)
ERROR on proc 418: Variable hw_z: Sqrt of negative value in variable formula (src/variable.cpp:3825)
ERROR on proc 359: Variable hw_z: Sqrt of negative value in variable formula (src/variable.cpp:3825)
ERROR on proc 435: Variable hw_z: Sqrt of negative value in variable formula (src/variable.cpp:3825)
ERROR on proc 298: Variable hw_z: Sqrt of negative value in variable formula (src/variable.cpp:3825)
ERROR on proc 446: Variable hw_z: Sqrt of negative value in variable formula (src/variable.cpp:3825)
ERROR on proc 291: Variable hw_z: Sqrt of negative value in variable formula (src/variable.cpp:3825)
ERROR on proc 408: Variable hw_z: Sqrt of negative value in variable formula (src/variable.cpp:3825)
ERROR on proc 353: Variable hw_z: Sqrt of negative value in variable formula (src/variable.cpp:3825)
ERROR on proc 449: Variable hw_z: Sqrt of negative value in variable formula (src/variable.cpp:3825)
ERROR on proc 311: Variable hw_z: Sqrt of negative value in variable formula (src/variable.cpp:3825)
ERROR on proc 467: Variable hw_z: Sqrt of negative value in variable formula (src/variable.cpp:3825)
ERROR on proc 340: Variable hw_z: Sqrt of negative value in variable formula (src/variable.cpp:3825)
ERROR on proc 452: Variable hw_z: Sqrt of negative value in variable formula (src/variable.cpp:3825)
ERROR on proc 336: Variable hw_z: Sqrt of negative value in variable formula (src/variable.cpp:3825)
ERROR on proc 433: Variable hw_z: Sqrt of negative value in variable formula (src/variable.cpp:3825)
ERROR on proc 332: Variable hw_z: Sqrt of negative value in variable formula (src/variable.cpp:3825)
ERROR on proc 389: Variable hw_z: Sqrt of negative value in variable formula (src/variable.cpp:3825)
ERROR on proc 323: Variable hw_z: Sqrt of negative value in variable formula (src/variable.cpp:3825)
ERROR on proc 402: Variable hw_z: Sqrt of negative value in variable formula (src/variable.cpp:3825)
ERROR on proc 320: Variable hw_z: Sqrt of negative value in variable formula (src/variable.cpp:3825)
ERROR on proc 412: Variable hw_z: Sqrt of negative value in variable formula (src/variable.cpp:3825)
ERROR on proc 265: Variable hw_z: Sqrt of negative value in variable formula (src/variable.cpp:3825)
ERROR on proc 399: Variable hw_z: Sqrt of negative value in variable formula (src/variable.cpp:3825)
ERROR on proc 321: Variable hw_z: Sqrt of negative value in variable formula (src/variable.cpp:3825)
ERROR on proc 384: Variable hw_z: Sqrt of negative value in variable formula (src/variable.cpp:3825)
ERROR on proc 335: Variable hw_z: Sqrt of negative value in variable formula (src/variable.cpp:3825)
ERROR on proc 374: Variable hw_z: Sqrt of negative value in variable formula (src/variable.cpp:3825)
ERROR on proc 338: Variable hw_z: Sqrt of negative value in variable formula (src/variable.cpp:3825)
ERROR on proc 415: Variable hw_z: Sqrt of negative value in variable formula (src/variable.cpp:3825)
ERROR on proc 324: Variable hw_z: Sqrt of negative value in variable formula (src/variable.cpp:3825)
ERROR on proc 400: Variable hw_z: Sqrt of negative value in variable formula (src/variable.cpp:3825)
ERROR on proc 305: Variable hw_z: Sqrt of negative value in variable formula (src/variable.cpp:3825)
ERROR on proc 409: Variable hw_z: Sqrt of negative value in variable formula (src/variable.cpp:3825)
ERROR on proc 347: Variable hw_z: Sqrt of negative value in variable formula (src/variable.cpp:3825)
ERROR on proc 378: Variable hw_z: Sqrt of negative value in variable formula (src/variable.cpp:3825)
ERROR on proc 341: Variable hw_z: Sqrt of negative value in variable formula (src/variable.cpp:3825)
ERROR on proc 376: Variable hw_z: Sqrt of negative value in variable formula (src/variable.cpp:3825)
ERROR on proc 343: Variable hw_z: Sqrt of negative value in variable formula (src/variable.cpp:3825)
ERROR on proc 377: Variable hw_z: Sqrt of negative value in variable formula (src/variable.cpp:3825)
ERROR on proc 345: Variable hw_z: Sqrt of negative value in variable formula (src/variable.cpp:3825)
ERROR on proc 369: Variable hw_z: Sqrt of negative value in variable formula (src/variable.cpp:3825)
ERROR on proc 333: Variable hw_z: Sqrt of negative value in variable formula (src/variable.cpp:3825)
ERROR on proc 365: Variable hw_z: Sqrt of negative value in variable formula (src/variable.cpp:3825)
ERROR on proc 354: Variable hw_z: Sqrt of negative value in variable formula (src/variable.cpp:3825)
ERROR on proc 361: Variable hw_z: Sqrt of negative value in variable formula (src/variable.cpp:3825)
ERROR on proc 304: Variable hw_z: Sqrt of negative value in variable formula (src/variable.cpp:3825)
ERROR on proc 385: Variable hw_z: Sqrt of negative value in variable formula (src/variable.cpp:3825)
ERROR on proc 314: Variable hw_z: Sqrt of negative value in variable formula (src/variable.cpp:3825)
ERROR on proc 466: Variable hw_z: Sqrt of negative value in variable formula (src/variable.cpp:3825)
ERROR on proc 312: Variable hw_z: Sqrt of negative value in variable formula (src/variable.cpp:3825)
ERROR on proc 453: Variable hw_z: Sqrt of negative value in variable formula (src/variable.cpp:3825)
ERROR on proc 315: Variable hw_z: Sqrt of negative value in variable formula (src/variable.cpp:3825)
ERROR on proc 417: Variable hw_z: Sqrt of negative value in variable formula (src/variable.cpp:3825)
ERROR on proc 313: Variable hw_z: Sqrt of negative value in variable formula (src/variable.cpp:3825)
ERROR on proc 434: Variable hw_z: Sqrt of negative value in variable formula (src/variable.cpp:3825)
ERROR on proc 344: Variable hw_z: Sqrt of negative value in variable formula (src/variable.cpp:3825)
ERROR on proc 477: Variable hw_z: Sqrt of negative value in variable formula (src/variable.cpp:3825)
ERROR on proc 337: Variable hw_z: Sqrt of negative value in variable formula (src/variable.cpp:3825)
ERROR on proc 387: Variable hw_z: Sqrt of negative value in variable formula (src/variable.cpp:3825)
ERROR on proc 318: Variable hw_z: Sqrt of negative value in variable formula (src/variable.cpp:3825)
ERROR on proc 455: Variable hw_z: Sqrt of negative value in variable formula (src/variable.cpp:3825)
ERROR on proc 346: Variable hw_z: Sqrt of negative value in variable formula (src/variable.cpp:3825)
ERROR on proc 397: Variable hw_z: Sqrt of negative value in variable formula (src/variable.cpp:3825)
ERROR on proc 355: Variable hw_z: Sqrt of negative value in variable formula (src/variable.cpp:3825)
ERROR on proc 405: Variable hw_z: Sqrt of negative value in variable formula (src/variable.cpp:3825)
ERROR on proc 306: Variable hw_z: Sqrt of negative value in variable formula (src/variable.cpp:3825)
ERROR on proc 424: Variable hw_z: Sqrt of negative value in variable formula (src/variable.cpp:3825)
ERROR on proc 342: Variable hw_z: Sqrt of negative value in variable formula (src/variable.cpp:3825)
ERROR on proc 404: Variable hw_z: Sqrt of negative value in variable formula (src/variable.cpp:3825)
ERROR on proc 325: Variable hw_z: Sqrt of negative value in variable formula (src/variable.cpp:3825)
ERROR on proc 427: Variable hw_z: Sqrt of negative value in variable formula (src/variable.cpp:3825)
ERROR on proc 322: Variable hw_z: Sqrt of negative value in variable formula (src/variable.cpp:3825)
ERROR on proc 419: Variable hw_z: Sqrt of negative value in variable formula (src/variable.cpp:3825)
ERROR on proc 307: Variable hw_z: Sqrt of negative value in variable formula (src/variable.cpp:3825)
ERROR on proc 398: Variable hw_z: Sqrt of negative value in variable formula (src/variable.cpp:3825)
ERROR on proc 326: Variable hw_z: Sqrt of negative value in variable formula (src/variable.cpp:3825)
ERROR on proc 363: Variable hw_z: Sqrt of negative value in variable formula (src/variable.cpp:3825)
ERROR on proc 327: Variable hw_z: Sqrt of negative value in variable formula (src/variable.cpp:3825)
ERROR on proc 403: Variable hw_z: Sqrt of negative value in variable formula (src/variable.cpp:3825)
ERROR on proc 245: Variable hw_z: Sqrt of negative value in variable formula (src/variable.cpp:3825)
ERROR on proc 460: Variable hw_z: Sqrt of negative value in variable formula (src/variable.cpp:3825)
ERROR on proc 274: Variable hw_z: Sqrt of negative value in variable formula (src/variable.cpp:3825)
ERROR on proc 473: Variable hw_z: Sqrt of negative value in variable formula (src/variable.cpp:3825)
ERROR on proc 270: Variable hw_z: Sqrt of negative value in variable formula (src/variable.cpp:3825)
ERROR on proc 386: Variable hw_z: Sqrt of negative value in variable formula (src/variable.cpp:3825)
ERROR on proc 250: Variable hw_z: Sqrt of negative value in variable formula (src/variable.cpp:3825)
ERROR on proc 472: Variable hw_z: Sqrt of negative value in variable formula (src/variable.cpp:3825)
ERROR on proc 271: Variable hw_z: Sqrt of negative value in variable formula (src/variable.cpp:3825)
ERROR on proc 458: Variable hw_z: Sqrt of negative value in variable formula (src/variable.cpp:3825)
ERROR on proc 334: Variable hw_z: Sqrt of negative value in variable formula (src/variable.cpp:3825)
ERROR on proc 457: Variable hw_z: Sqrt of negative value in variable formula (src/variable.cpp:3825)
ERROR on proc 248: Variable hw_z: Sqrt of negative value in variable formula (src/variable.cpp:3825)
ERROR on proc 388: Variable hw_z: Sqrt of negative value in variable formula (src/variable.cpp:3825)
ERROR on proc 294: Variable hw_z: Sqrt of negative value in variable formula (src/variable.cpp:3825)
ERROR on proc 468: Variable hw_z: Sqrt of negative value in variable formula (src/variable.cpp:3825)
ERROR on proc 339: Variable hw_z: Sqrt of negative value in variable formula (src/variable.cpp:3825)
ERROR on proc 451: Variable hw_z: Sqrt of negative value in variable formula (src/variable.cpp:3825)
ERROR on proc 284: Variable hw_z: Sqrt of negative value in variable formula (src/variable.cpp:3825)
ERROR on proc 416: Variable hw_z: Sqrt of negative value in variable formula (src/variable.cpp:3825)
ERROR on proc 286: Variable hw_z: Sqrt of negative value in variable formula (src/variable.cpp:3825)
ERROR on proc 362: Variable hw_z: Sqrt of negative value in variable formula (src/variable.cpp:3825)
ERROR on proc 316: Variable hw_z: Sqrt of negative value in variable formula (src/variable.cpp:3825)
ERROR on proc 368: Variable hw_z: Sqrt of negative value in variable formula (src/variable.cpp:3825)
ERROR on proc 301: Variable hw_z: Sqrt of negative value in variable formula (src/variable.cpp:3825)
ERROR on proc 441: Variable hw_z: Sqrt of negative value in variable formula (src/variable.cpp:3825)
ERROR on proc 300: Variable hw_z: Sqrt of negative value in variable formula (src/variable.cpp:3825)
ERROR on proc 187: Variable hw_z: Sqrt of negative value in variable formula (src/variable.cpp:3825)
ERROR on proc 382: Variable hw_z: Sqrt of negative value in variable formula (src/variable.cpp:3825)
ERROR on proc 244: Variable hw_z: Sqrt of negative value in variable formula (src/variable.cpp:3825)
ERROR on proc 184: Variable hw_z: Sqrt of negative value in variable formula (src/variable.cpp:3825)
ERROR on proc 380: Variable hw_z: Sqrt of negative value in variable formula (src/variable.cpp:3825)
ERROR on proc 302: Variable hw_z: Sqrt of negative value in variable formula (src/variable.cpp:3825)
ERROR on proc 186: Variable hw_z: Sqrt of negative value in variable formula (src/variable.cpp:3825)
ERROR on proc 420: Variable hw_z: Sqrt of negative value in variable formula (src/variable.cpp:3825)
ERROR on proc 277: Variable hw_z: Sqrt of negative value in variable formula (src/variable.cpp:3825)
ERROR on proc 373: Variable hw_z: Sqrt of negative value in variable formula (src/variable.cpp:3825)
ERROR on proc 241: Variable hw_z: Sqrt of negative value in variable formula (src/variable.cpp:3825)
ERROR on proc 185: Variable hw_z: Sqrt of negative value in variable formula (src/variable.cpp:3825)
ERROR on proc 423: Variable hw_z: Sqrt of negative value in variable formula (src/variable.cpp:3825)
ERROR on proc 243: Variable hw_z: Sqrt of negative value in variable formula (src/variable.cpp:3825)
ERROR on proc 201: Variable hw_z: Sqrt of negative value in variable formula (src/variable.cpp:3825)
ERROR on proc 392: Variable hw_z: Sqrt of negative value in variable formula (src/variable.cpp:3825)
ERROR on proc 242: Variable hw_z: Sqrt of negative value in variable formula (src/variable.cpp:3825)
ERROR on proc 192: Variable hw_z: Sqrt of negative value in variable formula (src/variable.cpp:3825)
ERROR on proc 394: Variable hw_z: Sqrt of negative value in variable formula (src/variable.cpp:3825)
ERROR on proc 261: Variable hw_z: Sqrt of negative value in variable formula (src/variable.cpp:3825)
ERROR on proc 121: Variable hw_z: Sqrt of negative value in variable formula (src/variable.cpp:3825)
ERROR on proc 391: Variable hw_z: Sqrt of negative value in variable formula (src/variable.cpp:3825)
ERROR on proc 257: Variable hw_z: Sqrt of negative value in variable formula (src/variable.cpp:3825)
ERROR on proc 204: Variable hw_z: Sqrt of negative value in variable formula (src/variable.cpp:3825)
ERROR on proc 390: Variable hw_z: Sqrt of negative value in variable formula (src/variable.cpp:3825)
ERROR on proc 267: Variable hw_z: Sqrt of negative value in variable formula (src/variable.cpp:3825)
ERROR on proc 132: Variable hw_z: Sqrt of negative value in variable formula (src/variable.cpp:3825)
ERROR on proc 410: Variable hw_z: Sqrt of negative value in variable formula (src/variable.cpp:3825)
ERROR on proc 247: Variable hw_z: Sqrt of negative value in variable formula (src/variable.cpp:3825)
ERROR on proc 140: Variable hw_z: Sqrt of negative value in variable formula (src/variable.cpp:3825)
ERROR on proc 364: Variable hw_z: Sqrt of negative value in variable formula (src/variable.cpp:3825)
ERROR on proc 251: Variable hw_z: Sqrt of negative value in variable formula (src/variable.cpp:3825)
ERROR on proc 129: Variable hw_z: Sqrt of negative value in variable formula (src/variable.cpp:3825)
ERROR on proc 360: Variable hw_z: Sqrt of negative value in variable formula (src/variable.cpp:3825)
ERROR on proc 259: Variable hw_z: Sqrt of negative value in variable formula (src/variable.cpp:3825)
ERROR on proc 137: Variable hw_z: Sqrt of negative value in variable formula (src/variable.cpp:3825)
ERROR on proc 413: Variable hw_z: Sqrt of negative value in variable formula (src/variable.cpp:3825)
ERROR on proc 264: Variable hw_z: Sqrt of negative value in variable formula (src/variable.cpp:3825)
ERROR on proc 141: Variable hw_z: Sqrt of negative value in variable formula (src/variable.cpp:3825)
ERROR on proc 396: Variable hw_z: Sqrt of negative value in variable formula (src/variable.cpp:3825)
ERROR on proc 269: Variable hw_z: Sqrt of negative value in variable formula (src/variable.cpp:3825)
ERROR on proc 136: Variable hw_z: Sqrt of negative value in variable formula (src/variable.cpp:3825)
ERROR on proc 395: Variable hw_z: Sqrt of negative value in variable formula (src/variable.cpp:3825)
ERROR on proc 285: Variable hw_z: Sqrt of negative value in variable formula (src/variable.cpp:3825)
ERROR on proc 133: Variable hw_z: Sqrt of negative value in variable formula (src/variable.cpp:3825)
ERROR on proc 393: Variable hw_z: Sqrt of negative value in variable formula (src/variable.cpp:3825)
ERROR on proc 252: Variable hw_z: Sqrt of negative value in variable formula (src/variable.cpp:3825)
ERROR on proc 145: Variable hw_z: Sqrt of negative value in variable formula (src/variable.cpp:3825)
ERROR on proc 406: Variable hw_z: Sqrt of negative value in variable formula (src/variable.cpp:3825)
ERROR on proc 254: Variable hw_z: Sqrt of negative value in variable formula (src/variable.cpp:3825)
ERROR on proc 149: Variable hw_z: Sqrt of negative value in variable formula (src/variable.cpp:3825)
ERROR on proc 407: Variable hw_z: Sqrt of negative value in variable formula (src/variable.cpp:3825)
ERROR on proc 351: Variable hw_z: Sqrt of negative value in variable formula (src/variable.cpp:3825)
ERROR on proc 139: Variable hw_z: Sqrt of negative value in variable formula (src/variable.cpp:3825)
ERROR on proc 370: Variable hw_z: Sqrt of negative value in variable formula (src/variable.cpp:3825)
ERROR on proc 255: Variable hw_z: Sqrt of negative value in variable formula (src/variable.cpp:3825)
ERROR on proc 180: Variable hw_z: Sqrt of negative value in variable formula (src/variable.cpp:3825)
ERROR on proc 379: Variable hw_z: Sqrt of negative value in variable formula (src/variable.cpp:3825)
ERROR on proc 278: Variable hw_z: Sqrt of negative value in variable formula (src/variable.cpp:3825)
ERROR on proc 160: Variable hw_z: Sqrt of negative value in variable formula (src/variable.cpp:3825)
ERROR on proc 371: Variable hw_z: Sqrt of negative value in variable formula (src/variable.cpp:3825)
ERROR on proc 258: Variable hw_z: Sqrt of negative value in variable formula (src/variable.cpp:3825)
ERROR on proc 195: Variable hw_z: Sqrt of negative value in variable formula (src/variable.cpp:3825)
ERROR on proc 367: Variable hw_z: Sqrt of negative value in variable formula (src/variable.cpp:3825)
ERROR on proc 276: Variable hw_z: Sqrt of negative value in variable formula (src/variable.cpp:3825)
ERROR on proc 197: Variable hw_z: Sqrt of negative value in variable formula (src/variable.cpp:3825)
ERROR on proc 366: Variable hw_z: Sqrt of negative value in variable formula (src/variable.cpp:3825)
ERROR on proc 288: Variable hw_z: Sqrt of negative value in variable formula (src/variable.cpp:3825)
ERROR on proc 207: Variable hw_z: Sqrt of negative value in variable formula (src/variable.cpp:3825)
ERROR on proc 381: Variable hw_z: Sqrt of negative value in variable formula (src/variable.cpp:3825)
ERROR on proc 246: Variable hw_z: Sqrt of negative value in variable formula (src/variable.cpp:3825)
ERROR on proc 194: Variable hw_z: Sqrt of negative value in variable formula (src/variable.cpp:3825)
ERROR on proc 401: Variable hw_z: Sqrt of negative value in variable formula (src/variable.cpp:3825)
ERROR on proc 282: Variable hw_z: Sqrt of negative value in variable formula (src/variable.cpp:3825)
ERROR on proc 219: Variable hw_z: Sqrt of negative value in variable formula (src/variable.cpp:3825)
ERROR on proc 383: Variable hw_z: Sqrt of negative value in variable formula (src/variable.cpp:3825)
ERROR on proc 281: Variable hw_z: Sqrt of negative value in variable formula (src/variable.cpp:3825)
ERROR on proc 228: Variable hw_z: Sqrt of negative value in variable formula (src/variable.cpp:3825)
ERROR on proc 454: Variable hw_z: Sqrt of negative value in variable formula (src/variable.cpp:3825)
ERROR on proc 249: Variable hw_z: Sqrt of negative value in variable formula (src/variable.cpp:3825)
ERROR on proc 232: Variable hw_z: Sqrt of negative value in variable formula (src/variable.cpp:3825)
ERROR on proc 422: Variable hw_z: Sqrt of negative value in variable formula (src/variable.cpp:3825)
ERROR on proc 260: Variable hw_z: Sqrt of negative value in variable formula (src/variable.cpp:3825)
ERROR on proc 206: Variable hw_z: Sqrt of negative value in variable formula (src/variable.cpp:3825)
ERROR on proc 459: Variable hw_z: Sqrt of negative value in variable formula (src/variable.cpp:3825)
ERROR on proc 263: Variable hw_z: Sqrt of negative value in variable formula (src/variable.cpp:3825)
ERROR on proc 196: Variable hw_z: Sqrt of negative value in variable formula (src/variable.cpp:3825)
ERROR on proc 462: Variable hw_z: Sqrt of negative value in variable formula (src/variable.cpp:3825)
ERROR on proc 268: Variable hw_z: Sqrt of negative value in variable formula (src/variable.cpp:3825)
ERROR on proc 217: Variable hw_z: Sqrt of negative value in variable formula (src/variable.cpp:3825)
ERROR on proc 461: Variable hw_z: Sqrt of negative value in variable formula (src/variable.cpp:3825)
ERROR on proc 279: Variable hw_z: Sqrt of negative value in variable formula (src/variable.cpp:3825)
ERROR on proc 190: Variable hw_z: Sqrt of negative value in variable formula (src/variable.cpp:3825)
ERROR on proc 474: Variable hw_z: Sqrt of negative value in variable formula (src/variable.cpp:3825)
ERROR on proc 273: Variable hw_z: Sqrt of negative value in variable formula (src/variable.cpp:3825)
ERROR on proc 208: Variable hw_z: Sqrt of negative value in variable formula (src/variable.cpp:3825)
ERROR on proc 463: Variable hw_z: Sqrt of negative value in variable formula (src/variable.cpp:3825)
ERROR on proc 289: Variable hw_z: Sqrt of negative value in variable formula (src/variable.cpp:3825)
ERROR on proc 237: Variable hw_z: Sqrt of negative value in variable formula (src/variable.cpp:3825)
ERROR on proc 475: Variable hw_z: Sqrt of negative value in variable formula (src/variable.cpp:3825)
ERROR on proc 287: Variable hw_z: Sqrt of negative value in variable formula (src/variable.cpp:3825)
ERROR on proc 215: Variable hw_z: Sqrt of negative value in variable formula (src/variable.cpp:3825)
ERROR on proc 437: Variable hw_z: Sqrt of negative value in variable formula (src/variable.cpp:3825)
ERROR on proc 293: Variable hw_z: Sqrt of negative value in variable formula (src/variable.cpp:3825)
ERROR on proc 238: Variable hw_z: Sqrt of negative value in variable formula (src/variable.cpp:3825)
ERROR on proc 426: Variable hw_z: Sqrt of negative value in variable formula (src/variable.cpp:3825)
ERROR on proc 292: Variable hw_z: Sqrt of negative value in variable formula (src/variable.cpp:3825)
ERROR on proc 239: Variable hw_z: Sqrt of negative value in variable formula (src/variable.cpp:3825)
ERROR on proc 425: Variable hw_z: Sqrt of negative value in variable formula (src/variable.cpp:3825)
ERROR on proc 280: Variable hw_z: Sqrt of negative value in variable formula (src/variable.cpp:3825)
ERROR on proc 189: Variable hw_z: Sqrt of negative value in variable formula (src/variable.cpp:3825)
ERROR on proc 444: Variable hw_z: Sqrt of negative value in variable formula (src/variable.cpp:3825)
ERROR on proc 275: Variable hw_z: Sqrt of negative value in variable formula (src/variable.cpp:3825)
ERROR on proc 221: Variable hw_z: Sqrt of negative value in variable formula (src/variable.cpp:3825)
ERROR on proc 442: Variable hw_z: Sqrt of negative value in variable formula (src/variable.cpp:3825)
ERROR on proc 295: Variable hw_z: Sqrt of negative value in variable formula (src/variable.cpp:3825)
ERROR on proc 199: Variable hw_z: Sqrt of negative value in variable formula (src/variable.cpp:3825)
ERROR on proc 440: Variable hw_z: Sqrt of negative value in variable formula (src/variable.cpp:3825)
ERROR on proc 290: Variable hw_z: Sqrt of negative value in variable formula (src/variable.cpp:3825)
ERROR on proc 226: Variable hw_z: Sqrt of negative value in variable formula (src/variable.cpp:3825)
ERROR on proc 443: Variable hw_z: Sqrt of negative value in variable formula (src/variable.cpp:3825)
ERROR on proc 253: Variable hw_z: Sqrt of negative value in variable formula (src/variable.cpp:3825)
ERROR on proc 188: Variable hw_z: Sqrt of negative value in variable formula (src/variable.cpp:3825)
ERROR on proc 432: Variable hw_z: Sqrt of negative value in variable formula (src/variable.cpp:3825)
ERROR on proc 283: Variable hw_z: Sqrt of negative value in variable formula (src/variable.cpp:3825)
ERROR on proc 200: Variable hw_z: Sqrt of negative value in variable formula (src/variable.cpp:3825)
ERROR on proc 143: Variable hw_z: Sqrt of negative value in variable formula (src/variable.cpp:3825)
ERROR on proc 130: Variable hw_z: Sqrt of negative value in variable formula (src/variable.cpp:3825)
ERROR on proc 142: Variable hw_z: Sqrt of negative value in variable formula (src/variable.cpp:3825)
ERROR on proc 164: Variable hw_z: Sqrt of negative value in variable formula (src/variable.cpp:3825)
ERROR on proc 165: Variable hw_z: Sqrt of negative value in variable formula (src/variable.cpp:3825)
ERROR on proc 202: Variable hw_z: Sqrt of negative value in variable formula (src/variable.cpp:3825)
ERROR on proc 157: Variable hw_z: Sqrt of negative value in variable formula (src/variable.cpp:3825)
ERROR on proc 225: Variable hw_z: Sqrt of negative value in variable formula (src/variable.cpp:3825)
ERROR on proc 175: Variable hw_z: Sqrt of negative value in variable formula (src/variable.cpp:3825)
ERROR on proc 127: Variable hw_z: Sqrt of negative value in variable formula (src/variable.cpp:3825)
ERROR on proc 128: Variable hw_z: Sqrt of negative value in variable formula (src/variable.cpp:3825)
ERROR on proc 174: Variable hw_z: Sqrt of negative value in variable formula (src/variable.cpp:3825)
ERROR on proc 151: Variable hw_z: Sqrt of negative value in variable formula (src/variable.cpp:3825)
ERROR on proc 123: Variable hw_z: Sqrt of negative value in variable formula (src/variable.cpp:3825)
ERROR on proc 147: Variable hw_z: Sqrt of negative value in variable formula (src/variable.cpp:3825)
ERROR on proc 122: Variable hw_z: Sqrt of negative value in variable formula (src/variable.cpp:3825)
ERROR on proc 144: Variable hw_z: Sqrt of negative value in variable formula (src/variable.cpp:3825)
ERROR on proc 152: Variable hw_z: Sqrt of negative value in variable formula (src/variable.cpp:3825)
ERROR on proc 227: Variable hw_z: Sqrt of negative value in variable formula (src/variable.cpp:3825)
ERROR on proc 124: Variable hw_z: Sqrt of negative value in variable formula (src/variable.cpp:3825)
ERROR on proc 212: Variable hw_z: Sqrt of negative value in variable formula (src/variable.cpp:3825)
ERROR on proc 153: Variable hw_z: Sqrt of negative value in variable formula (src/variable.cpp:3825)
ERROR on proc 163: Variable hw_z: Sqrt of negative value in variable formula (src/variable.cpp:3825)
ERROR on proc 146: Variable hw_z: Sqrt of negative value in variable formula (src/variable.cpp:3825)
ERROR on proc 216: Variable hw_z: Sqrt of negative value in variable formula (src/variable.cpp:3825)
ERROR on proc 213: Variable hw_z: Sqrt of negative value in variable formula (src/variable.cpp:3825)
ERROR on proc 224: Variable hw_z: Sqrt of negative value in variable formula (src/variable.cpp:3825)
ERROR on proc 210: Variable hw_z: Sqrt of negative value in variable formula (src/variable.cpp:3825)
ERROR on proc 230: Variable hw_z: Sqrt of negative value in variable formula (src/variable.cpp:3825)
ERROR on proc 168: Variable hw_z: Sqrt of negative value in variable formula (src/variable.cpp:3825)
ERROR on proc 134: Variable hw_z: Sqrt of negative value in variable formula (src/variable.cpp:3825)
ERROR on proc 148: Variable hw_z: Sqrt of negative value in variable formula (src/variable.cpp:3825)
ERROR on proc 178: Variable hw_z: Sqrt of negative value in variable formula (src/variable.cpp:3825)
ERROR on proc 135: Variable hw_z: Sqrt of negative value in variable formula (src/variable.cpp:3825)
ERROR on proc 162: Variable hw_z: Sqrt of negative value in variable formula (src/variable.cpp:3825)
ERROR on proc 126: Variable hw_z: Sqrt of negative value in variable formula (src/variable.cpp:3825)
ERROR on proc 235: Variable hw_z: Sqrt of negative value in variable formula (src/variable.cpp:3825)
ERROR on proc 233: Variable hw_z: Sqrt of negative value in variable formula (src/variable.cpp:3825)
ERROR on proc 120: Variable hw_z: Sqrt of negative value in variable formula (src/variable.cpp:3825)
ERROR on proc 223: Variable hw_z: Sqrt of negative value in variable formula (src/variable.cpp:3825)
ERROR on proc 203: Variable hw_z: Sqrt of negative value in variable formula (src/variable.cpp:3825)
ERROR on proc 198: Variable hw_z: Sqrt of negative value in variable formula (src/variable.cpp:3825)
ERROR on proc 191: Variable hw_z: Sqrt of negative value in variable formula (src/variable.cpp:3825)
ERROR on proc 158: Variable hw_z: Sqrt of negative value in variable formula (src/variable.cpp:3825)
ERROR on proc 231: Variable hw_z: Sqrt of negative value in variable formula (src/variable.cpp:3825)
ERROR on proc 209: Variable hw_z: Sqrt of negative value in variable formula (src/variable.cpp:3825)
ERROR on proc 150: Variable hw_z: Sqrt of negative value in variable formula (src/variable.cpp:3825)
ERROR on proc 125: Variable hw_z: Sqrt of negative value in variable formula (src/variable.cpp:3825)
ERROR on proc 234: Variable hw_z: Sqrt of negative value in variable formula (src/variable.cpp:3825)
ERROR on proc 229: Variable hw_z: Sqrt of negative value in variable formula (src/variable.cpp:3825)
ERROR on proc 170: Variable hw_z: Sqrt of negative value in variable formula (src/variable.cpp:3825)
ERROR on proc 169: Variable hw_z: Sqrt of negative value in variable formula (src/variable.cpp:3825)
ERROR on proc 218: Variable hw_z: Sqrt of negative value in variable formula (src/variable.cpp:3825)
ERROR on proc 176: Variable hw_z: Sqrt of negative value in variable formula (src/variable.cpp:3825)
ERROR on proc 171: Variable hw_z: Sqrt of negative value in variable formula (src/variable.cpp:3825)
ERROR on proc 236: Variable hw_z: Sqrt of negative value in variable formula (src/variable.cpp:3825)
ERROR on proc 177: Variable hw_z: Sqrt of negative value in variable formula (src/variable.cpp:3825)
ERROR on proc 166: Variable hw_z: Sqrt of negative value in variable formula (src/variable.cpp:3825)
ERROR on proc 181: Variable hw_z: Sqrt of negative value in variable formula (src/variable.cpp:3825)
ERROR on proc 161: Variable hw_z: Sqrt of negative value in variable formula (src/variable.cpp:3825)
ERROR on proc 156: Variable hw_z: Sqrt of negative value in variable formula (src/variable.cpp:3825)
ERROR on proc 211: Variable hw_z: Sqrt of negative value in variable formula (src/variable.cpp:3825)
ERROR on proc 183: Variable hw_z: Sqrt of negative value in variable formula (src/variable.cpp:3825)
ERROR on proc 222: Variable hw_z: Sqrt of negative value in variable formula (src/variable.cpp:3825)
ERROR on proc 220: Variable hw_z: Sqrt of negative value in variable formula (src/variable.cpp:3825)
ERROR on proc 193: Variable hw_z: Sqrt of negative value in variable formula (src/variable.cpp:3825)
ERROR on proc 205: Variable hw_z: Sqrt of negative value in variable formula (src/variable.cpp:3825)
ERROR on proc 172: Variable hw_z: Sqrt of negative value in variable formula (src/variable.cpp:3825)
ERROR on proc 131: Variable hw_z: Sqrt of negative value in variable formula (src/variable.cpp:3825)
ERROR on proc 179: Variable hw_z: Sqrt of negative value in variable formula (src/variable.cpp:3825)
ERROR on proc 173: Variable hw_z: Sqrt of negative value in variable formula (src/variable.cpp:3825)
ERROR on proc 155: Variable hw_z: Sqrt of negative value in variable formula (src/variable.cpp:3825)
ERROR on proc 154: Variable hw_z: Sqrt of negative value in variable formula (src/variable.cpp:3825)
ERROR on proc 182: Variable hw_z: Sqrt of negative value in variable formula (src/variable.cpp:3825)
ERROR on proc 138: Variable hw_z: Sqrt of negative value in variable formula (src/variable.cpp:3825)
ERROR on proc 214: Variable hw_z: Sqrt of negative value in variable formula (src/variable.cpp:3825)
ERROR on proc 167: Variable hw_z: Sqrt of negative value in variable formula (src/variable.cpp:3825)
ERROR on proc 159: Variable hw_z: Sqrt of negative value in variable formula (src/variable.cpp:3825)
======================================
Running post-processing...
======================================
Generating convergence plot...
Plot saved to ./output_plots/convergence_plots/walled_slab_support_5beads_10x10x5_rho6_extra_padding43_1.5_1.4_10000000_1.5_1.4_50000_convergence.png
Generating stress profiles...
No stress data found for walled_slab_support_5beads_10x10x5_rho6_extra_padding43_1.5_1.4_10000000_1.5_1.4_50000, skipping stress plots
No volume data found for walled_slab_support_5beads_10x10x5_rho6_extra_padding43_1.5_1.4_10000000_1.5_1.4_50000, skipping volume fraction plots
Generating piston plots...
Error: Piston position file not found: ./output_files/piston_data/piston_position_walled_slab_support_5beads_10x10x5_rho6_extra_padding43_1.5_1.4_10000000_1.5_1.4_50000.dat
Generating computational efficiency plot...
Found data file: ./data_files/walled_slab_support_5beads_10x10x5_rho6_extra_padding43_1.5_1.4_10000000.data
Mobile atoms: 1104570
Entry 'walled_slab_support_5beads_10x10x5_rho6_extra_padding43_1.5_1.4_10000000_1.5_1.4_50000' already exists in tracking file, skipping.
Tracking info written to /jet/home/dpollard/Documents/lammps_work/tracking.txt
Saved /jet/home/dpollard/Documents/lammps_work/time_vs_atoms.png
Saved /jet/home/dpollard/Documents/lammps_work/time_vs_timesteps.png
======================================
Done! Results are in: /jet/home/dpollard/Documents/lammps_runs/slab_with_flow_walled_slab_support_5beads_10x10x5_rho6_extra_padding43_1.5_1.4_10000000_1.5_1.4_20260116_130957
======================================
