======================================
Working directory: /jet/home/dpollard/Documents/lammps_runs/slab_with_flow_final_config_slab_support_5beads_10x10x5_rho6_extra_padding43_1.5_1.4_10000000_1.5_1.4_20260107_190152
Trajectory directory (scratch): /ocean/projects/chm250028p/dpollard/lammps_trajectories/slab_with_flow_final_config_slab_support_5beads_10x10x5_rho6_extra_padding43_1.5_1.4_10000000_1.5_1.4_20260107_190152
======================================
Running LAMMPS in slab_with_flow with:
  dataname=final_config_slab_support_5beads_10x10x5_rho6_extra_padding43_1.5_1.4_10000000
  epsSS=1.5, epsSP=1.4
  nsteps=100000, oldsteps=0, totsteps=100000
SLURM tasks per node: 120
SLURM CPUs per task: 1
SLURM_GPUS_ON_NODE: 
GPUs allocated: 
Running CPU-only with 480 tasks
LAMMPS (22 Jul 2025)
  using 1 OpenMP thread(s) per MPI task
using multi-threaded neighbor list subroutines
Reading data file ...
  orthogonal box = (-6.8704069 -6.8704069 -4.3828458) to (93.870407 93.870407 59.882846)
  8 by 10 by 6 MPI processor grid
WARNING: Pair style lj/cut/omp in data file differs from currently defined pair style zero (src/read_data.cpp:811)
  reading atoms ...
  766478 atoms
  reading velocities ...
  766478 velocities
  scanning bonds ...
  3 = max bonds/atom
  orthogonal box = (-6.8704069 -6.8704069 -4.3828458) to (93.870407 93.870407 59.882846)
  8 by 10 by 6 MPI processor grid
  reading bonds ...
  144000 bonds
Finding 1-2 1-3 1-4 neighbors ...
  special bond factors lj:    0        0        0       
  special bond factors coul:  0        0        0       
     4 = max # of 1-2 neighbors
     4 = max # of 1-3 neighbors
     8 = max # of 1-4 neighbors
    12 = max # of special neighbors
  special bonds CPU = 0.102 seconds
  read_data CPU = 4.893 seconds
========================================
Flow simulation: final_config_slab_support_5beads_10x10x5_rho6_extra_padding43_1.5_1.4_10000000
Interaction: epsSS=1.5, epsSP=1.4
Production steps: 100000
Piston force per bead: -0.001
========================================
127091 atoms in group polymer
420079 atoms in group solvent
109654 atoms in group support
109654 atoms in group piston
547170 atoms in group mobile
346399 atoms in group gel_system
Finding 1-2 1-3 1-4 neighbors ...
  special bond factors lj:    0        1        1       
  special bond factors coul:  0        1        1       
     4 = max # of 1-2 neighbors
    12 = max # of special neighbors
  special bonds CPU = 0.015 seconds
  1 rigid bodies with 109654 atoms
  1 rigid bodies with 109654 atoms
========================================
Phase 1: Soft push to resolve solvent-piston overlaps
========================================
Generated 0 of 10 mixed pair_coeff terms from geometric mixing rule
Hybrid pair style last /omp style soft
Last active /omp style is bond_style fene/omp
WARNING: More than one fix rigid (src/RIGID/fix_rigid.cpp:712)
WARNING: More than one fix rigid (src/RIGID/fix_rigid.cpp:712)
Neighbor list info ...
  update: every = 1 steps, delay = 0 steps, check = yes
  max neighbors/atom: 2000, page size: 100000
  master list distance cutoff = 2.8
  ghost atom cutoff = 5
  binsize = 1.4, bins = 72 72 46
  2 neighbor lists, perpetual/occasional/extra = 2 0 0
  (1) pair lj/cut, perpetual
      attributes: half, newton on, omp, cut 2.8
      pair build: half/bin/newton/omp
      stencil: half/bin/3d
      bin: standard
  (2) pair soft, perpetual, skip from (1)
      attributes: half, newton on, omp
      pair build: skip/omp
      stencil: none
      bin: none
Setting up Verlet run ...
  Unit style    : lj
  Current step  : 0
  Time step     : 0.005
Per MPI rank memory allocation (min/avg/max) = 13.39 | 17.12 | 24.87 Mbytes
   Step          Temp          PotEng         KinEng         TotEng         Press          Volume           Lx             Ly             Lz      
         0   1.1850382     -1.2513347      1.2689619      0.017627139    1.0000028      652213.97      100.74081      100.74081      64.265692    
      1000   1.1960928     -1.3595086      1.2807993     -0.078709288    2.143794       652213.97      100.74081      100.74081      64.265692    
Loop time of 11.105 on 480 procs for 1000 steps with 766478 atoms

Performance: 38901.527 tau/day, 90.050 timesteps/s, 69.021 Matom-step/s
99.2% CPU use with 480 MPI tasks x 1 OpenMP threads

MPI task timing breakdown:
Section |  min time  |  avg time  |  max time  |%varavg| %total
---------------------------------------------------------------
Pair    | 0.92346    | 1.2406     | 1.8134     |  26.0 | 11.17
Bond    | 0.0024955  | 0.015525   | 0.025738   |   5.2 |  0.14
Neigh   | 3.9899     | 4.0679     | 4.161      |   2.1 | 36.63
Comm    | 0.60354    | 1.4005     | 2.1445     |  25.6 | 12.61
Output  | 0.0022028  | 0.002219   | 0.0022366  |   0.0 |  0.02
Modify  | 3.1063     | 4.2944     | 4.9769     |  17.2 | 38.67
Other   |            | 0.08384    |            |       |  0.75

Nlocal:        1596.83 ave        2500 max        1128 min
Histogram: 293 27 0 0 0 0 0 15 65 80
Nghost:        9543.76 ave       14509 max        6743 min
Histogram: 320 0 0 0 0 0 0 0 0 160
Neighs:         141591 ave      377775 max       41038 min
Histogram: 320 0 0 0 0 0 0 80 0 80

Total # of neighbors = 67963472
Ave neighs/atom = 88.669827
Ave special neighs/atom = 0.37574464
Neighbor list builds = 210
Dangerous builds = 0
Soft push complete - overlaps resolved
========================================
Phase 2: Switching to full LJ interactions
========================================
Generated 0 of 10 mixed pair_coeff terms from geometric mixing rule
Last active /omp style is bond_style fene/omp
WARNING: More than one fix rigid (src/RIGID/fix_rigid.cpp:712)
WARNING: More than one fix rigid (src/RIGID/fix_rigid.cpp:712)
Neighbor list info ...
  update: every = 1 steps, delay = 0 steps, check = yes
  max neighbors/atom: 2000, page size: 100000
  master list distance cutoff = 2.8
  ghost atom cutoff = 5
  binsize = 1.4, bins = 72 72 46
  1 neighbor lists, perpetual/occasional/extra = 1 0 0
  (1) pair lj/cut/omp, perpetual
      attributes: half, newton on, omp
      pair build: half/bin/newton/omp
      stencil: half/bin/3d
      bin: standard
Setting up Verlet run ...
  Unit style    : lj
  Current step  : 1000
  Time step     : 0.005
Per MPI rank memory allocation (min/avg/max) = 12.77 | 16.09 | 22.58 Mbytes
   Step          Temp          PotEng         KinEng         TotEng         Press          Volume           Lx             Ly             Lz      
      1000   1.1960928     -1.3920821      1.2807993     -0.11128279     2.1557539      652213.97      100.74081      100.74081      64.265692    
      2000   1.0442223     -1.5413031      1.1181735     -0.42312966     0.75903296     652213.97      100.74081      100.74081      64.265692    
      3000   0.99933584    -1.569552       1.0701082     -0.4994438      0.77947182     652213.97      100.74081      100.74081      64.265692    
      4000   1.0007735     -1.5731958      1.0716477     -0.50154813     0.5366086      652213.97      100.74081      100.74081      64.265692    
      5000   0.99689843    -1.5691604      1.0674982     -0.50166222     0.58046857     652213.97      100.74081      100.74081      64.265692    
      6000   0.99695111    -1.5721918      1.0675546     -0.50463718     0.56491519     652213.97      100.74081      100.74081      64.265692    
Loop time of 20.2467 on 480 procs for 5000 steps with 766478 atoms

Performance: 106684.233 tau/day, 246.954 timesteps/s, 189.285 Matom-step/s
99.3% CPU use with 480 MPI tasks x 1 OpenMP threads

MPI task timing breakdown:
Section |  min time  |  avg time  |  max time  |%varavg| %total
---------------------------------------------------------------
Pair    | 1.8653     | 2.548      | 2.8911     |  15.7 | 12.58
Bond    | 0.0049095  | 0.023665   | 0.038899   |   6.1 |  0.12
Neigh   | 7.3027     | 8.1043     | 8.4363     |   5.7 | 40.03
Comm    | 4.0858     | 5.5013     | 7.9266     |  35.1 | 27.17
Output  | 0.00045913 | 0.00051877 | 0.0006303  |   0.0 |  0.00
Modify  | 2.6688     | 3.845      | 4.9912     |  23.9 | 18.99
Other   |            | 0.2239     |            |       |  1.11

Nlocal:        1596.83 ave        2557 max        1137 min
Histogram: 320 0 0 0 0 0 0 0 80 80
Nghost:        9541.88 ave       14867 max        6761 min
Histogram: 320 0 0 0 0 0 0 0 0 160
Neighs:        43679.3 ave       49474 max       32947 min
Histogram: 22 37 20 1 21 40 83 79 126 51

Total # of neighbors = 20966055
Ave neighs/atom = 27.35376
Ave special neighs/atom = 0.37574464
Neighbor list builds = 851
Dangerous builds = 0
========================================
Phase 3: Production flow with piston forcing
========================================
Generated 0 of 10 mixed pair_coeff terms from geometric mixing rule
Last active /omp style is bond_style fene/omp
WARNING: More than one fix rigid (src/RIGID/fix_rigid.cpp:712)
WARNING: More than one fix rigid (src/RIGID/fix_rigid.cpp:712)
Setting up Verlet run ...
  Unit style    : lj
  Current step  : 0
  Time step     : 0.005
Per MPI rank memory allocation (min/avg/max) = 15.79 | 20.11 | 28.6 Mbytes
   Step          Temp          PotEng         KinEng         TotEng         Press          Volume           Lx             Ly             Lz      
         0   0.99695111    -1.5721918      1.0675546     -0.50463718     0.53937538     652213.97      100.74081      100.74081      64.265692    
      1000   1.000804      -1.566899       1.0716804     -0.49521863     0.59225782     652213.97      100.74081      100.74081      64.265692    
      2000   0.99986569    -1.5682501      1.0706756     -0.49757451     0.59215441     652213.97      100.74081      100.74081      64.265692    
      3000   0.99835919    -1.5668008      1.0690624     -0.49773844     0.57120455     652213.97      100.74081      100.74081      64.265692    
      4000   1.0005051     -1.5674536      1.0713602     -0.49609335     0.58796025     652213.97      100.74081      100.74081      64.265692    
      5000   1.0009338     -1.565888       1.0718193     -0.49406873     0.59017292     652213.97      100.74081      100.74081      64.265692    
      6000   1.0001561     -1.5706767      1.0709866     -0.49969011     0.56360372     652213.97      100.74081      100.74081      64.265692    
      7000   0.99909034    -1.5701922      1.0698453     -0.50034686     0.56970231     652213.97      100.74081      100.74081      64.265692    
      8000   1.0008607     -1.5663867      1.071741      -0.4946457      0.58900785     652213.97      100.74081      100.74081      64.265692    
      9000   1.0005362     -1.5679336      1.0713936     -0.49654001     0.57039749     652213.97      100.74081      100.74081      64.265692    
     10000   0.9994407     -1.5679277      1.0702205     -0.49770723     0.57000777     652213.97      100.74081      100.74081      64.265692    
     11000   0.99889331    -1.5675538      1.0696343     -0.4979195      0.57034644     652213.97      100.74081      100.74081      64.265692    
     12000   0.9970835     -1.5668836      1.0676963     -0.49918729     0.55393223     652213.97      100.74081      100.74081      64.265692    
     13000   0.99901919    -1.56923        1.0697691     -0.49946085     0.55721137     652213.97      100.74081      100.74081      64.265692    
     14000   0.9992553     -1.5668238      1.0700219     -0.49680187     0.56455448     652213.97      100.74081      100.74081      64.265692    
     15000   1.000877      -1.5677393      1.0717585     -0.4959808      0.57010266     652213.97      100.74081      100.74081      64.265692    
     16000   1.002931      -1.5678091      1.073958      -0.49385111     0.5646155      652213.97      100.74081      100.74081      64.265692    
     17000   1.001225      -1.5651098      1.0721312     -0.49297863     0.57893795     652213.97      100.74081      100.74081      64.265692    
     18000   0.9986988     -1.5676061      1.069426      -0.49818006     0.56185958     652213.97      100.74081      100.74081      64.265692    
     19000   0.99888149    -1.5674826      1.0696217     -0.49786091     0.57042143     652213.97      100.74081      100.74081      64.265692    
     20000   1.0000854     -1.5686429      1.0709108     -0.49773202     0.55980022     652213.97      100.74081      100.74081      64.265692    
     21000   0.99938103    -1.5692341      1.0701566     -0.49907749     0.55097991     652213.97      100.74081      100.74081      64.265692    
     22000   1.000623      -1.5717401      1.0714865     -0.50025365     0.55672954     652213.97      100.74081      100.74081      64.265692    
     23000   1.0014497     -1.5699657      1.0723718     -0.49759393     0.55820092     652213.97      100.74081      100.74081      64.265692    
     24000   1.0005811     -1.5681444      1.0714417     -0.49670272     0.58265872     652213.97      100.74081      100.74081      64.265692    
     25000   1.0004618     -1.5691476      1.0713138     -0.49783373     0.56316966     652213.97      100.74081      100.74081      64.265692    
     26000   1.0017693     -1.5698232      1.072714      -0.49710921     0.56049752     652213.97      100.74081      100.74081      64.265692    
     27000   1.0012145     -1.5672681      1.0721199     -0.49514818     0.58732216     652213.97      100.74081      100.74081      64.265692    
     28000   1.000714      -1.5696855      1.071584      -0.49810146     0.56418972     652213.97      100.74081      100.74081      64.265692    
     29000   1.0008627     -1.5704271      1.0717432     -0.49868387     0.57380893     652213.97      100.74081      100.74081      64.265692    
     30000   0.99953241    -1.5704522      1.0703187     -0.50013355     0.56213141     652213.97      100.74081      100.74081      64.265692    
     31000   0.99899075    -1.5712497      1.0697387     -0.50151103     0.56260991     652213.97      100.74081      100.74081      64.265692    
     32000   0.99916292    -1.5707469      1.069923      -0.50082392     0.5439423      652213.97      100.74081      100.74081      64.265692    
     33000   0.99970688    -1.5694533      1.0705055     -0.49894775     0.5695427      652213.97      100.74081      100.74081      64.265692    
     34000   1.0004031     -1.5707334      1.0712511     -0.49948234     0.57952651     652213.97      100.74081      100.74081      64.265692    
     35000   1.0004627     -1.5732313      1.0713149     -0.5019164      0.54962854     652213.97      100.74081      100.74081      64.265692    
     36000   1.0008174     -1.5713672      1.0716947     -0.49967257     0.57542635     652213.97      100.74081      100.74081      64.265692    
     37000   1.0004992     -1.5730463      1.071354      -0.50169232     0.55197957     652213.97      100.74081      100.74081      64.265692    
     38000   0.99874438    -1.5716996      1.0694748     -0.50222474     0.56518666     652213.97      100.74081      100.74081      64.265692    
     39000   0.9992037     -1.5721651      1.0699667     -0.5021984      0.55020967     652213.97      100.74081      100.74081      64.265692    
     40000   0.99816387    -1.5721508      1.0688532     -0.50329759     0.55232216     652213.97      100.74081      100.74081      64.265692    
     41000   0.99954175    -1.5711072      1.0703287     -0.50077855     0.55521301     652213.97      100.74081      100.74081      64.265692    
     42000   0.9996141     -1.5707077      1.0704062     -0.50030153     0.55407013     652213.97      100.74081      100.74081      64.265692    
     43000   0.99776763    -1.5714537      1.0684289     -0.50302478     0.55489923     652213.97      100.74081      100.74081      64.265692    
     44000   0.99696819    -1.5698534      1.0675729     -0.50228056     0.56570283     652213.97      100.74081      100.74081      64.265692    
     45000   0.99930418    -1.5691063      1.0700743     -0.49903199     0.57132418     652213.97      100.74081      100.74081      64.265692    
     46000   1.0000904     -1.5696225      1.0709162     -0.49870634     0.57118885     652213.97      100.74081      100.74081      64.265692    
     47000   1.0009261     -1.5699339      1.0718111     -0.49812282     0.55992446     652213.97      100.74081      100.74081      64.265692    
     48000   1.0003286     -1.5707616      1.0711712     -0.49959043     0.56861231     652213.97      100.74081      100.74081      64.265692    
     49000   1.0014408     -1.5717451      1.0723622     -0.49938287     0.55250353     652213.97      100.74081      100.74081      64.265692    
     50000   0.99860431    -1.5717987      1.0693249     -0.50247388     0.54243055     652213.97      100.74081      100.74081      64.265692    
     51000   0.99901306    -1.5673381      1.0697625     -0.49757554     0.57451521     652213.97      100.74081      100.74081      64.265692    
     52000   1.0019972     -1.5708129      1.072958      -0.49785493     0.54048391     652213.97      100.74081      100.74081      64.265692    
     53000   1.0019193     -1.5692495      1.0728746     -0.49637494     0.57953907     652213.97      100.74081      100.74081      64.265692    
     54000   1.0009183     -1.5700865      1.0718027     -0.49828382     0.55460212     652213.97      100.74081      100.74081      64.265692    
     55000   1.0007436     -1.5697947      1.0716157     -0.49817901     0.54529445     652213.97      100.74081      100.74081      64.265692    
     56000   1.0019132     -1.5683897      1.0728681     -0.49552162     0.57117569     652213.97      100.74081      100.74081      64.265692    
     57000   0.99969427    -1.5677913      1.070492      -0.49729931     0.56658874     652213.97      100.74081      100.74081      64.265692    
     58000   1.0006449     -1.5686043      1.07151       -0.49709434     0.56900915     652213.97      100.74081      100.74081      64.265692    
     59000   1.0015447     -1.5676297      1.0724735     -0.49515617     0.57296291     652213.97      100.74081      100.74081      64.265692    
     60000   1.0004866     -1.5689777      1.0713405     -0.49763723     0.5543632      652213.97      100.74081      100.74081      64.265692    
     61000   0.99944441    -1.5692809      1.0702244     -0.49905649     0.56531022     652213.97      100.74081      100.74081      64.265692    
     62000   0.99914763    -1.5700796      1.0699067     -0.50017296     0.54864431     652213.97      100.74081      100.74081      64.265692    
     63000   0.99940213    -1.5687603      1.0701792     -0.4985811      0.56113463     652213.97      100.74081      100.74081      64.265692    
     64000   1.0008426     -1.5677155      1.0717217     -0.49599382     0.56644992     652213.97      100.74081      100.74081      64.265692    
     65000   0.99883399    -1.5698111      1.0695708     -0.50024031     0.56150576     652213.97      100.74081      100.74081      64.265692    
     66000   1.000346      -1.5695478      1.0711899     -0.49835782     0.56061704     652213.97      100.74081      100.74081      64.265692    
     67000   1.0002509     -1.5661119      1.0710881     -0.4950238      0.5597192      652213.97      100.74081      100.74081      64.265692    
     68000   0.99898825    -1.5687925      1.069736      -0.49905652     0.5592736      652213.97      100.74081      100.74081      64.265692    
     69000   1.0009147     -1.5698931      1.0717988     -0.49809427     0.54626413     652213.97      100.74081      100.74081      64.265692    
     70000   1.0027444     -1.5685956      1.0737582     -0.49483743     0.5601687      652213.97      100.74081      100.74081      64.265692    
     71000   1.0019602     -1.5689258      1.0729184     -0.49600736     0.55214074     652213.97      100.74081      100.74081      64.265692    
     72000   1.0015156     -1.5687152      1.0724424     -0.49627288     0.55543543     652213.97      100.74081      100.74081      64.265692    
     73000   1.000395      -1.5677147      1.0712423     -0.49647237     0.57356146     652213.97      100.74081      100.74081      64.265692    
     74000   0.99945304    -1.5716703      1.0702337     -0.50143664     0.55165048     652213.97      100.74081      100.74081      64.265692    
     75000   1.0007341     -1.5697124      1.0716055     -0.49810698     0.54172988     652213.97      100.74081      100.74081      64.265692    
     76000   0.99943158    -1.5676238      1.0702107     -0.49741306     0.56836986     652213.97      100.74081      100.74081      64.265692    
     77000   1.0014223     -1.5681322      1.0723424     -0.49578984     0.56120167     652213.97      100.74081      100.74081      64.265692    
     78000   1.0007428     -1.569259       1.0716148     -0.49764426     0.55727999     652213.97      100.74081      100.74081      64.265692    
     79000   0.99970347    -1.5683601      1.0705019     -0.49785827     0.55030172     652213.97      100.74081      100.74081      64.265692    
     80000   0.99833281    -1.5685326      1.0690341     -0.49949848     0.54600024     652213.97      100.74081      100.74081      64.265692    
     81000   1.0001161     -1.5706772      1.0709437     -0.4997335      0.55108935     652213.97      100.74081      100.74081      64.265692    
     82000   0.99852906    -1.5715333      1.0692443     -0.50228901     0.54727451     652213.97      100.74081      100.74081      64.265692    
     83000   0.99839644    -1.5691855      1.0691023     -0.5000832      0.55537952     652213.97      100.74081      100.74081      64.265692    
     84000   0.9992489     -1.5699283      1.0700151     -0.49991317     0.5693604      652213.97      100.74081      100.74081      64.265692    
     85000   1.0021348     -1.5696511      1.0731053     -0.49654579     0.55621387     652213.97      100.74081      100.74081      64.265692    
     86000   1.001655      -1.5693466      1.0725916     -0.49675496     0.5687941      652213.97      100.74081      100.74081      64.265692    
     87000   1.0017265     -1.5708354      1.0726681     -0.49816724     0.5510755      652213.97      100.74081      100.74081      64.265692    
     88000   1.0013736     -1.570773       1.0722903     -0.49848266     0.5470832      652213.97      100.74081      100.74081      64.265692    
     89000   0.99809774    -1.5686927      1.0687824     -0.49991034     0.57605277     652213.97      100.74081      100.74081      64.265692    
     90000   1.000161      -1.5703759      1.0709918     -0.49938408     0.55977937     652213.97      100.74081      100.74081      64.265692    
     91000   1.0016476     -1.568695       1.0725836     -0.49611137     0.56367368     652213.97      100.74081      100.74081      64.265692    
     92000   1.0011056     -1.570579       1.0720032     -0.49857572     0.55852379     652213.97      100.74081      100.74081      64.265692    
     93000   0.99995951    -1.5678478      1.070776      -0.49707182     0.5656336      652213.97      100.74081      100.74081      64.265692    
     94000   1.0026094     -1.5693857      1.0736136     -0.49577215     0.57156508     652213.97      100.74081      100.74081      64.265692    
     95000   1.0013917     -1.5709813      1.0723097     -0.49867168     0.5441205      652213.97      100.74081      100.74081      64.265692    
     96000   0.99823218    -1.5681384      1.0689264     -0.49921201     0.57161588     652213.97      100.74081      100.74081      64.265692    
     97000   1.0014206     -1.569768       1.0723406     -0.49742736     0.55082526     652213.97      100.74081      100.74081      64.265692    
     98000   1.0012091     -1.5679409      1.0721141     -0.49582684     0.57445348     652213.97      100.74081      100.74081      64.265692    
     99000   1.0023657     -1.5701797      1.0733526     -0.49682713     0.56584415     652213.97      100.74081      100.74081      64.265692    
    100000   0.99969819    -1.5669163      1.0704962     -0.4964201      0.56511854     652213.97      100.74081      100.74081      64.265692    
Loop time of 337.726 on 480 procs for 100000 steps with 766478 atoms

Performance: 127914.218 tau/day, 296.098 timesteps/s, 226.952 Matom-step/s
99.2% CPU use with 480 MPI tasks x 1 OpenMP threads

MPI task timing breakdown:
Section |  min time  |  avg time  |  max time  |%varavg| %total
---------------------------------------------------------------
Pair    | 38.987     | 51.366     | 56.978     |  66.8 | 15.21
Bond    | 0.1829     | 0.5813     | 0.83828    |  24.5 |  0.17
Neigh   | 126.58     | 131.33     | 137.12     |  24.9 | 38.89
Comm    | 79.584     | 105.47     | 135.39     | 158.9 | 31.23
Output  | 0.10576    | 0.46064    | 0.99944    |  35.2 |  0.14
Modify  | 25.914     | 43.037     | 64.639     | 153.5 | 12.74
Other   |            | 5.475      |            |       |  1.62

Nlocal:        1596.83 ave        2598 max        1127 min
Histogram: 320 0 0 0 0 0 0 43 37 80
Nghost:        9549.27 ave       14946 max        6759 min
Histogram: 320 0 0 0 0 0 0 0 0 160
Neighs:        43671.3 ave       48211 max       32728 min
Histogram: 20 49 11 0 0 4 58 99 130 109

Total # of neighbors = 20962243
Ave neighs/atom = 27.348786
Ave special neighs/atom = 0.37574464
Neighbor list builds = 16749
Dangerous builds = 0
========================================
Flow simulation complete
========================================
System init for write_data ...
Generated 0 of 10 mixed pair_coeff terms from geometric mixing rule
Last active /omp style is bond_style fene/omp
WARNING: More than one fix rigid (src/RIGID/fix_rigid.cpp:712)
WARNING: More than one fix rigid (src/RIGID/fix_rigid.cpp:712)
WARNING: Not all mixed pair coeffs generated from mixing. Use write_data with 'pair ij' option to store all pair coeffs. (src/write_data.cpp:364)
Total wall time: 0:06:17
======================================
Running post-processing...
======================================
Generating convergence plot...
Plot saved to ./output_plots/convergence_plots/final_config_slab_support_5beads_10x10x5_rho6_extra_padding43_1.5_1.4_10000000_1.5_1.4_100000_convergence.png
Generating stress profiles...
Warning: Could not find data file (tried final_config_slab_support_5beads_10x10x5_rho6_extra_padding43.data and final_config_slab_support_5beads_10x10x5_rho6_extra_padding43_1.5_1.4_10000000_1.5_1.4_100000.data), using default box dimensions
Stress profile saved to ./output_plots/final_config_slab_support_5beads_10x10x5_rho6_extra_padding43_1.5_1.4_10000000_1.5_1.4_100000_stress.png
No volume data found for final_config_slab_support_5beads_10x10x5_rho6_extra_padding43_1.5_1.4_10000000_1.5_1.4_100000, skipping volume fraction plots
Generating computational efficiency plot...
Data file not found: ./data_files/final_config_slab_support_5beads_10x10x5_rho6_extra_padding43.data
Error: Could not parse data file
======================================
Done! Results are in: /jet/home/dpollard/Documents/lammps_runs/slab_with_flow_final_config_slab_support_5beads_10x10x5_rho6_extra_padding43_1.5_1.4_10000000_1.5_1.4_20260107_190152
======================================
