======================================
Working directory: /jet/home/dpollard/Documents/lammps_runs/slab_with_flow_final_config_slab_support_5beads_10x10x5_rho6_extra_padding43_1.5_1.4_10000000_1.5_1.4_20260107_231017
Trajectory directory (scratch): /ocean/projects/chm250028p/dpollard/lammps_trajectories/slab_with_flow_final_config_slab_support_5beads_10x10x5_rho6_extra_padding43_1.5_1.4_10000000_1.5_1.4_20260107_231017
======================================
Running LAMMPS in slab_with_flow with:
  dataname=final_config_slab_support_5beads_10x10x5_rho6_extra_padding43_1.5_1.4_10000000
  epsSS=1.5, epsSP=1.4
  nsteps=100000, oldsteps=0, totsteps=100000
SLURM tasks per node: 120
SLURM CPUs per task: 1
SLURM_GPUS_ON_NODE: 
GPUs allocated: 
Running CPU-only with 480 tasks
LAMMPS (22 Jul 2025)
  using 1 OpenMP thread(s) per MPI task
using multi-threaded neighbor list subroutines
Reading data file ...
  orthogonal box = (-6.8704069 -6.8704069 -4.3828458) to (93.870407 93.870407 59.882846)
  8 by 10 by 6 MPI processor grid
WARNING: Pair style lj/cut/omp in data file differs from currently defined pair style zero (src/read_data.cpp:811)
  reading atoms ...
  766478 atoms
  reading velocities ...
  766478 velocities
  scanning bonds ...
  3 = max bonds/atom
  orthogonal box = (-6.8704069 -6.8704069 -4.3828458) to (93.870407 93.870407 59.882846)
  8 by 10 by 6 MPI processor grid
  reading bonds ...
  144000 bonds
Finding 1-2 1-3 1-4 neighbors ...
  special bond factors lj:    0        0        0       
  special bond factors coul:  0        0        0       
     4 = max # of 1-2 neighbors
     4 = max # of 1-3 neighbors
     8 = max # of 1-4 neighbors
    12 = max # of special neighbors
  special bonds CPU = 0.106 seconds
  read_data CPU = 4.857 seconds
========================================
Flow simulation: final_config_slab_support_5beads_10x10x5_rho6_extra_padding43_1.5_1.4_10000000
Interaction: epsSS=1.5, epsSP=1.4
Production steps: 100000
Piston force per bead: -0.1
========================================
127091 atoms in group polymer
420079 atoms in group solvent
109654 atoms in group support
109654 atoms in group piston
547170 atoms in group mobile
346399 atoms in group gel_system
Finding 1-2 1-3 1-4 neighbors ...
  special bond factors lj:    0        1        1       
  special bond factors coul:  0        1        1       
     4 = max # of 1-2 neighbors
    12 = max # of special neighbors
  special bonds CPU = 0.016 seconds
  1 rigid bodies with 109654 atoms
  1 rigid bodies with 109654 atoms
========================================
Phase 1: Soft push to resolve solvent-piston overlaps
========================================
Generated 0 of 10 mixed pair_coeff terms from geometric mixing rule
Hybrid pair style last /omp style soft
Last active /omp style is bond_style fene/omp
WARNING: More than one fix rigid (src/RIGID/fix_rigid.cpp:712)
WARNING: More than one fix rigid (src/RIGID/fix_rigid.cpp:712)
Neighbor list info ...
  update: every = 1 steps, delay = 0 steps, check = yes
  max neighbors/atom: 2000, page size: 100000
  master list distance cutoff = 2.8
  ghost atom cutoff = 5
  binsize = 1.4, bins = 72 72 46
  2 neighbor lists, perpetual/occasional/extra = 2 0 0
  (1) pair lj/cut, perpetual
      attributes: half, newton on, omp, cut 2.8
      pair build: half/bin/newton/omp
      stencil: half/bin/3d
      bin: standard
  (2) pair soft, perpetual, skip from (1)
      attributes: half, newton on, omp
      pair build: skip/omp
      stencil: none
      bin: none
Setting up Verlet run ...
  Unit style    : lj
  Current step  : 0
  Time step     : 0.005
Per MPI rank memory allocation (min/avg/max) = 13.39 | 17.12 | 24.87 Mbytes
   Step          Temp          PotEng         KinEng         TotEng         Press          Volume           Lx             Ly             Lz      
         0   1.1850382     -1.2513347      1.2689619      0.017627139    1.0000028      652213.97      100.74081      100.74081      64.265692    
      1000   1.1960928     -1.3595086      1.2807993     -0.078709288    2.143794       652213.97      100.74081      100.74081      64.265692    
Loop time of 6.1813 on 480 procs for 1000 steps with 766478 atoms

Performance: 69888.241 tau/day, 161.778 timesteps/s, 124.000 Matom-step/s
99.0% CPU use with 480 MPI tasks x 1 OpenMP threads

MPI task timing breakdown:
Section |  min time  |  avg time  |  max time  |%varavg| %total
---------------------------------------------------------------
Pair    | 0.9205     | 1.2358     | 1.7848     |  25.7 | 19.99
Bond    | 0.0025298  | 0.01558    | 0.034502   |   5.3 |  0.25
Neigh   | 2.7002     | 2.8404     | 2.9268     |   3.2 | 45.95
Comm    | 0.79371    | 1.2761     | 1.7851     |  26.7 | 20.64
Output  | 0.0024198  | 0.0024374  | 0.0024738  |   0.0 |  0.04
Modify  | 0.37339    | 0.74235    | 1.3459     |  41.1 | 12.01
Other   |            | 0.0686     |            |       |  1.11

Nlocal:        1596.83 ave        2500 max        1128 min
Histogram: 293 27 0 0 0 0 0 15 65 80
Nghost:        9543.76 ave       14509 max        6743 min
Histogram: 320 0 0 0 0 0 0 0 0 160
Neighs:         141591 ave      377775 max       41038 min
Histogram: 320 0 0 0 0 0 0 80 0 80

Total # of neighbors = 67963472
Ave neighs/atom = 88.669827
Ave special neighs/atom = 0.37574464
Neighbor list builds = 210
Dangerous builds = 0
Soft push complete - overlaps resolved
========================================
Phase 2: Switching to full LJ interactions
========================================
Generated 0 of 10 mixed pair_coeff terms from geometric mixing rule
Last active /omp style is bond_style fene/omp
WARNING: More than one fix rigid (src/RIGID/fix_rigid.cpp:712)
WARNING: More than one fix rigid (src/RIGID/fix_rigid.cpp:712)
Neighbor list info ...
  update: every = 1 steps, delay = 0 steps, check = yes
  max neighbors/atom: 2000, page size: 100000
  master list distance cutoff = 2.8
  ghost atom cutoff = 5
  binsize = 1.4, bins = 72 72 46
  1 neighbor lists, perpetual/occasional/extra = 1 0 0
  (1) pair lj/cut/omp, perpetual
      attributes: half, newton on, omp
      pair build: half/bin/newton/omp
      stencil: half/bin/3d
      bin: standard
Setting up Verlet run ...
  Unit style    : lj
  Current step  : 1000
  Time step     : 0.005
Per MPI rank memory allocation (min/avg/max) = 12.77 | 16.09 | 22.58 Mbytes
   Step          Temp          PotEng         KinEng         TotEng         Press          Volume           Lx             Ly             Lz      
      1000   1.1960928     -1.3920821      1.2807993     -0.11128279     2.1557539      652213.97      100.74081      100.74081      64.265692    
      5000   0.99689843    -1.5691604      1.0674982     -0.50166222     0.58046857     652213.97      100.74081      100.74081      64.265692    
      6000   0.99695111    -1.5721918      1.0675546     -0.50463718     0.56491519     652213.97      100.74081      100.74081      64.265692    
Loop time of 17.1398 on 480 procs for 5000 steps with 766478 atoms

Performance: 126022.651 tau/day, 291.719 timesteps/s, 223.596 Matom-step/s
99.3% CPU use with 480 MPI tasks x 1 OpenMP threads

MPI task timing breakdown:
Section |  min time  |  avg time  |  max time  |%varavg| %total
---------------------------------------------------------------
Pair    | 1.8556     | 2.5448     | 2.8857     |  15.7 | 14.85
Bond    | 0.0051507  | 0.02361    | 0.040166   |   6.1 |  0.14
Neigh   | 7.1219     | 7.3517     | 7.6315     |   5.1 | 42.89
Comm    | 4.0637     | 5.2916     | 6.6234     |  33.3 | 30.87
Output  | 0.000179   | 0.00020216 | 0.00030678 |   0.0 |  0.00
Modify  | 1.038      | 1.7106     | 2.6793     |  31.9 |  9.98
Other   |            | 0.2174     |            |       |  1.27

Nlocal:        1596.83 ave        2557 max        1137 min
Histogram: 320 0 0 0 0 0 0 0 80 80
Nghost:        9541.88 ave       14867 max        6761 min
Histogram: 320 0 0 0 0 0 0 0 0 160
Neighs:        43679.3 ave       49474 max       32947 min
Histogram: 22 37 20 1 21 40 83 79 126 51

Total # of neighbors = 20966055
Ave neighs/atom = 27.35376
Ave special neighs/atom = 0.37574464
Neighbor list builds = 851
Dangerous builds = 0
========================================
Phase 3: Production flow with piston forcing
========================================
Generated 0 of 10 mixed pair_coeff terms from geometric mixing rule
Last active /omp style is bond_style fene/omp
WARNING: More than one fix rigid (src/RIGID/fix_rigid.cpp:712)
WARNING: More than one fix rigid (src/RIGID/fix_rigid.cpp:712)
Setting up Verlet run ...
  Unit style    : lj
  Current step  : 0
  Time step     : 0.005
Per MPI rank memory allocation (min/avg/max) = 15.79 | 20.11 | 28.6 Mbytes
   Step          Temp          PotEng         KinEng         TotEng         Press          Volume           Lx             Ly             Lz      
         0   0.99695111    -1.5721918      1.0675546     -0.50463718     0.53937538     652213.97      100.74081      100.74081      64.265692    
      5000   1.0117834     -1.6363867      1.0834373     -0.55294938     0.77216192     652213.97      100.74081      100.74081      64.265692    
     10000   0.99738284    -1.7160888      1.0680169     -0.64807197     1.1144431      652213.97      100.74081      100.74081      64.265692    
     15000   0.99821664    -1.6581608      1.0689097     -0.5892511      0.89227131     652213.97      100.74081      100.74081      64.265692    
     20000   1.0015842     -1.6586075      1.0725157     -0.58609174     0.88726483     652213.97      100.74081      100.74081      64.265692    
     25000   0.9994468     -1.6506525      1.070227      -0.58042545     0.85984368     652213.97      100.74081      100.74081      64.265692    
     30000   0.99913461    -1.6446678      1.0698927     -0.57477508     0.86905283     652213.97      100.74081      100.74081      64.265692    
     35000   0.99988433    -1.6448444      1.0706955     -0.5741489      0.83187753     652213.97      100.74081      100.74081      64.265692    
     40000   1.0011005     -1.6392494      1.0719979     -0.56725158     0.84758777     652213.97      100.74081      100.74081      64.265692    
     45000   0.99876357    -1.6386866      1.0694954     -0.56919126     0.82911996     652213.97      100.74081      100.74081      64.265692    
     50000   1.000735      -1.6382853      1.0716064     -0.56667889     0.81885936     652213.97      100.74081      100.74081      64.265692    
     55000   1.0013781     -1.6362947      1.072295      -0.56399967     0.82071926     652213.97      100.74081      100.74081      64.265692    
     60000   1.0007473     -1.6331467      1.0716196     -0.56152719     0.82309322     652213.97      100.74081      100.74081      64.265692    
     65000   1.0015509     -1.6359771      1.0724802     -0.5634969      0.8368457      652213.97      100.74081      100.74081      64.265692    
     70000   1.0008249     -1.6333075      1.0717027     -0.56160482     0.80926188     652213.97      100.74081      100.74081      64.265692    
     75000   0.99914971    -1.6364308      1.0699089     -0.56652188     0.80396732     652213.97      100.74081      100.74081      64.265692    
     80000   1.0012289     -1.6317906      1.0721353     -0.55965531     0.82209805     652213.97      100.74081      100.74081      64.265692    
     85000   1.0010996     -1.6360259      1.0719968     -0.56402907     0.80105767     652213.97      100.74081      100.74081      64.265692    
     90000   1.0015578     -1.6319906      1.0724875     -0.55950306     0.8395931      652213.97      100.74081      100.74081      64.265692    
     95000   0.99979253    -1.6326472      1.0705972     -0.56204997     0.80696607     652213.97      100.74081      100.74081      64.265692    
    100000   1.002058      -1.6333806      1.0730231     -0.56035743     0.81166041     652213.97      100.74081      100.74081      64.265692    
Loop time of 306.846 on 480 procs for 100000 steps with 766478 atoms

Performance: 140787.016 tau/day, 325.896 timesteps/s, 249.792 Matom-step/s
99.2% CPU use with 480 MPI tasks x 1 OpenMP threads

MPI task timing breakdown:
Section |  min time  |  avg time  |  max time  |%varavg| %total
---------------------------------------------------------------
Pair    | 37.066     | 51.837     | 60.251     |  96.1 | 16.89
Bond    | 0.14203    | 0.54112    | 0.89264    |  31.4 |  0.18
Neigh   | 96.619     | 100.09     | 106        |  22.9 | 32.62
Comm    | 81.937     | 106.5      | 128.3      | 114.7 | 34.71
Output  | 0.27023    | 1.2885     | 4.0055     | 131.1 |  0.42
Modify  | 28.218     | 39.335     | 56.442     | 112.9 | 12.82
Other   |            | 7.254      |            |       |  2.36

Nlocal:        1596.83 ave        2653 max        1064 min
Histogram: 242 78 0 0 0 0 0 78 2 80
Nghost:        9541.16 ave       15725 max        6916 min
Histogram: 240 0 1 88 71 0 0 0 0 80
Neighs:        44286.6 ave       51540 max       29934 min
Histogram: 31 47 2 7 73 0 6 63 146 105

Total # of neighbors = 21257545
Ave neighs/atom = 27.734058
Ave special neighs/atom = 0.37574464
Neighbor list builds = 16740
Dangerous builds = 0
========================================
Flow simulation complete
========================================
System init for write_data ...
Generated 0 of 10 mixed pair_coeff terms from geometric mixing rule
Last active /omp style is bond_style fene/omp
WARNING: More than one fix rigid (src/RIGID/fix_rigid.cpp:712)
WARNING: More than one fix rigid (src/RIGID/fix_rigid.cpp:712)
WARNING: Not all mixed pair coeffs generated from mixing. Use write_data with 'pair ij' option to store all pair coeffs. (src/write_data.cpp:364)
Total wall time: 0:05:37
======================================
Running post-processing...
======================================
Generating convergence plot...
Plot saved to ./output_plots/convergence_plots/final_config_slab_support_5beads_10x10x5_rho6_extra_padding43_1.5_1.4_10000000_1.5_1.4_100000_convergence.png
Generating stress profiles...
Warning: Could not find data file (tried final_config_slab_support_5beads_10x10x5_rho6_extra_padding43.data and final_config_slab_support_5beads_10x10x5_rho6_extra_padding43_1.5_1.4_10000000_1.5_1.4_100000.data), using default box dimensions
Stress profile saved to ./output_plots/final_config_slab_support_5beads_10x10x5_rho6_extra_padding43_1.5_1.4_10000000_1.5_1.4_100000_stress.png
No volume data found for final_config_slab_support_5beads_10x10x5_rho6_extra_padding43_1.5_1.4_10000000_1.5_1.4_100000, skipping volume fraction plots
Generating piston plots...
Read 11 position points, 11 velocity points
Piston plot saved to ./output_plots/final_config_slab_support_5beads_10x10x5_rho6_extra_padding43_1.5_1.4_10000000_1.5_1.4_100000_piston.png

=== Piston Summary ===
Initial position: 58.6953
Final position:   46.4320
Total displacement: -12.2633
Steady-state velocity: -3.56e-03 ± 2.90e-03
Generating computational efficiency plot...
Found data file: ./data_files/final_config_slab_support_5beads_10x10x5_rho6_extra_padding43_1.5_1.4_10000000.data
Mobile atoms: 766478
Entry 'final_config_slab_support_5beads_10x10x5_rho6_extra_padding43_1.5_1.4_10000000_1.5_1.4_100000' already exists in tracking file, skipping.
Tracking info written to /jet/home/dpollard/Documents/lammps_work/tracking.txt
Saved /jet/home/dpollard/Documents/lammps_work/time_vs_atoms.png
Saved /jet/home/dpollard/Documents/lammps_work/time_vs_timesteps.png
======================================
Done! Results are in: /jet/home/dpollard/Documents/lammps_runs/slab_with_flow_final_config_slab_support_5beads_10x10x5_rho6_extra_padding43_1.5_1.4_10000000_1.5_1.4_20260107_231017
======================================
