======================================
Working directory: /jet/home/dpollard/Documents/lammps_runs/slab_with_flow_walled_slab_support_5beads_tall_4_1.0_1.05_15000000_1.0_1.05_20260214_172545
Trajectory directory (scratch): /ocean/projects/chm250028p/dpollard/lammps_trajectories/slab_with_flow_walled_slab_support_5beads_tall_4_1.0_1.05_15000000_1.0_1.05_20260214_172545
======================================
Running LAMMPS in slab_with_flow with:
  dataname=walled_slab_support_5beads_tall_4_1.0_1.05_15000000
  epsSS=1.0, epsSP=1.05
  nsteps=50000, oldsteps=0, totsteps=50000
SLURM tasks per node: 120
SLURM CPUs per task: 1
SLURM_GPUS_ON_NODE: 
GPUs allocated: 
Running CPU-only with 600 tasks
LAMMPS (22 Jul 2025)
  using 1 OpenMP thread(s) per MPI task
using multi-threaded neighbor list subroutines
>>> Stress: nevery=100 nrepeat=50 nfreq=5000
>>> Mode: compression_mode=1  (0=permeation, 1=compression)
Reading data file ...
  orthogonal box = (-5.6347822 -5.6347822 -9.6815804) to (71.634782 71.634782 123.08158)
  5 by 8 by 15 MPI processor grid
  reading atoms ...
  1278442 atoms
  scanning bonds ...
  3 = max bonds/atom
  orthogonal box = (-5.6347822 -5.6347822 -9.6815804) to (71.634782 71.634782 123.08158)
  5 by 8 by 15 MPI processor grid
  reading bonds ...
  114808 bonds
Finding 1-2 1-3 1-4 neighbors ...
  special bond factors lj:    0        0        0       
  special bond factors coul:  0        0        0       
     4 = max # of 1-2 neighbors
     4 = max # of 1-3 neighbors
     8 = max # of 1-4 neighbors
    12 = max # of special neighbors
  special bonds CPU = 0.148 seconds
  read_data CPU = 9.591 seconds
========================================
Flow/Compression simulation: walled_slab_support_5beads_tall_4_1.0_1.05_15000000
Interaction: epsSS=1.0, epsSP=1.05
Production steps: 50000
WARNING: Detected non-ASCII characters in input. Will try to continue by replacing with ASCII equivalents where known. (src/input.cpp:478)
Piston force: -0.005 †’ -0.01 (ramp)
========================================
101482 atoms in group polymer
197612 atoms in group solvent
63221 atoms in group support
63221 atoms in group piston
852906 atoms in group walls
299094 atoms in group mobile
425536 atoms in group gel_system
Finding 1-2 1-3 1-4 neighbors ...
  special bond factors lj:    0        1        1       
  special bond factors coul:  0        1        1       
     4 = max # of 1-2 neighbors
    12 = max # of special neighbors
  special bonds CPU = 0.054 seconds
  1 rigid bodies with 63221 atoms
  1 rigid bodies with 63221 atoms
  1 rigid bodies with 852906 atoms
========================================
Phase 1: Soft push to resolve overlaps
========================================
Generated 0 of 15 mixed pair_coeff terms from geometric mixing rule
Hybrid pair style last /omp style soft
Last active /omp style is bond_style fene/omp
WARNING: More than one fix rigid (src/RIGID/fix_rigid.cpp:712)
WARNING: More than one fix rigid (src/RIGID/fix_rigid.cpp:712)
WARNING: More than one fix rigid (src/RIGID/fix_rigid.cpp:712)
Neighbor list info ...
  update: every = 1 steps, delay = 0 steps, check = yes
  max neighbors/atom: 2000, page size: 100000
  master list distance cutoff = 2.8
  ghost atom cutoff = 5
  binsize = 1.4, bins = 56 56 95
  2 neighbor lists, perpetual/occasional/extra = 2 0 0
  (1) pair lj/cut, perpetual
      attributes: half, newton on, omp, cut 2.8
      pair build: half/bin/newton/omp
      stencil: half/bin/3d
      bin: standard
  (2) pair soft, perpetual, skip from (1)
      attributes: half, newton on, omp
      pair build: skip/omp
      stencil: none
      bin: none
Setting up Verlet run ...
  Unit style    : lj
  Current step  : 0
  Time step     : 0.005
Per MPI rank memory allocation (min/avg/max) = 16.56 | 20.82 | 38.92 Mbytes
   Step     c_mobile_temp      PotEng         KinEng         TotEng         Press          Volume           Lx             Ly             Lz      
         0   0              0.50526228     0              0.50526228     0.083476512    792673.82      77.269564      77.269564      132.76316    
      1000   0.82867149     0.32978848     0.290803       0.62059147     0.60544026     792673.82      77.269564      77.269564      132.76316    
Loop time of 25.1921 on 600 procs for 1000 steps with 1278442 atoms

Performance: 17148.203 tau/day, 39.695 timesteps/s, 50.748 Matom-step/s
99.3% CPU use with 600 MPI tasks x 1 OpenMP threads

MPI task timing breakdown:
Section |  min time  |  avg time  |  max time  |%varavg| %total
---------------------------------------------------------------
Pair    | 0.024705   | 0.5601     | 1.3943     |  51.6 |  2.22
Bond    | 0.00097636 | 0.012199   | 0.041597   |  10.8 |  0.05
Neigh   | 19.52      | 20.045     | 20.436     |   4.7 | 79.57
Comm    | 0.84018    | 2.0916     | 3.6301     |  42.9 |  8.30
Output  | 0.0038218  | 0.019733   | 0.033526   |   6.6 |  0.08
Modify  | 1.4706     | 2.2422     | 3.589      |  42.2 |  8.90
Other   |            | 0.2212     |            |       |  0.88

Nlocal:        2130.74 ave        6212 max           0 min
Histogram: 130 119 57 24 116 27 29 80 6 12
Nghost:        12714.6 ave       28821 max        6042 min
Histogram: 143 106 63 122 82 37 23 16 4 4
Neighs:        27727.4 ave       84527 max           0 min
Histogram: 154 67 78 43 43 106 87 16 4 2

Total # of neighbors = 16636461
Ave neighs/atom = 13.013075
Ave special neighs/atom = 0.17960611
Neighbor list builds = 405
Dangerous builds = 0
Generated 0 of 15 mixed pair_coeff terms from geometric mixing rule
Hybrid pair style last /omp style soft
Last active /omp style is bond_style fene/omp
WARNING: More than one fix rigid (src/RIGID/fix_rigid.cpp:712)
WARNING: More than one fix rigid (src/RIGID/fix_rigid.cpp:712)
WARNING: More than one fix rigid (src/RIGID/fix_rigid.cpp:712)
Setting up cg style minimization ...
  Unit style    : lj
  Current step  : 1000
Per MPI rank memory allocation (min/avg/max) = 18.15 | 23.62 | 44.18 Mbytes
   Step     c_mobile_temp      PotEng         KinEng         TotEng         Press          Volume           Lx             Ly             Lz      
      1000   0.82867149     0.32978848     0.290803       0.62059147     0.60544026     792673.82      77.269564      77.269564      132.76316    
      1990   0.82867149    -0.065386532    0.290803       0.22541646     0.057421013    792673.82      77.269564      77.269564      132.76316    
Loop time of 26.0369 on 600 procs for 990 steps with 1278442 atoms

99.4% CPU use with 600 MPI tasks x 1 OpenMP threads

Minimization stats:
  Stopping criterion = energy tolerance
  Energy initial, next-to-last, final = 
     0.329788475041832 -0.0653810619884997 -0.0653865320141907
  Force two-norm initial, final = 18519.214 97.099458
  Force max component initial, final = 331.87208 13.776828
  Final line search alpha, max atom move = 0.0036357801 0.050089519
  Iterations, force evaluations = 990 1336

MPI task timing breakdown:
Section |  min time  |  avg time  |  max time  |%varavg| %total
---------------------------------------------------------------
Pair    | 0.0031856  | 0.63055    | 1.996      |  80.2 |  2.42
Bond    | 0.0010264  | 0.012406   | 0.046333   |  13.4 |  0.05
Neigh   | 17.02      | 17.494     | 18.178     |   4.6 | 67.19
Comm    | 0.94344    | 2.6686     | 4.434      |  53.5 | 10.25
Output  | 0          | 0          | 0          |   0.0 |  0.00
Modify  | 0.01115    | 0.039783   | 0.14234    |  11.9 |  0.15
Other   |            | 5.192      |            |       | 19.94

Nlocal:        2130.74 ave        6157 max           0 min
Histogram: 130 1 175 24 116 27 30 79 6 12
Nghost:        12673.3 ave       28525 max        6067 min
Histogram: 153 96 63 133 50 56 25 15 5 4
Neighs:        22406.9 ave       73104 max           0 min
Histogram: 309 23 27 41 28 7 6 29 129 1

Total # of neighbors = 13444146
Ave neighs/atom = 10.516039
Ave special neighs/atom = 0.17960611
Neighbor list builds = 363
Dangerous builds = 9
Soft push complete
========================================
Phase 2: Switching to full LJ interactions
========================================
Generated 0 of 15 mixed pair_coeff terms from geometric mixing rule
Last active /omp style is bond_style fene/omp
WARNING: More than one fix rigid (src/RIGID/fix_rigid.cpp:712)
WARNING: More than one fix rigid (src/RIGID/fix_rigid.cpp:712)
WARNING: More than one fix rigid (src/RIGID/fix_rigid.cpp:712)
Neighbor list info ...
  update: every = 1 steps, delay = 0 steps, check = yes
  max neighbors/atom: 2000, page size: 100000
  master list distance cutoff = 2.8
  ghost atom cutoff = 5
  binsize = 1.4, bins = 56 56 95
  1 neighbor lists, perpetual/occasional/extra = 1 0 0
  (1) pair lj/cut/omp, perpetual
      attributes: half, newton on, omp
      pair build: half/bin/newton/omp
      stencil: half/bin/3d
      bin: standard
Setting up cg style minimization ...
  Unit style    : lj
  Current step  : 1990
Per MPI rank memory allocation (min/avg/max) = 17.52 | 23.02 | 43.29 Mbytes
   Step     c_mobile_temp      PotEng         KinEng         TotEng         Press          Volume           Lx             Ly             Lz      
      1990   0.82867149    -0.065495593    0.290803       0.2253074      0.057435223    792673.82      77.269564      77.269564      132.76316    
      1991   0.82867149    -0.065495991    0.290803       0.225307       0.057470631    792673.82      77.269564      77.269564      132.76316    
Loop time of 0.0395318 on 600 procs for 1 steps with 1278442 atoms

99.4% CPU use with 600 MPI tasks x 1 OpenMP threads

Minimization stats:
  Stopping criterion = energy tolerance
  Energy initial, next-to-last, final = 
    -0.0654955930674256 -0.0654955930674256 -0.0654959914290381
  Force two-norm initial, final = 152.85519 133.35479
  Force max component initial, final = 80.431331 37.001397
  Final line search alpha, max atom move = 0.0012432966 0.04600371
  Iterations, force evaluations = 1 2

MPI task timing breakdown:
Section |  min time  |  avg time  |  max time  |%varavg| %total
---------------------------------------------------------------
Pair    | 2.2682e-05 | 0.0014223  | 0.0051601  |   4.1 |  3.60
Bond    | 2.314e-06  | 2.8653e-05 | 0.00028724 |   0.0 |  0.07
Neigh   | 0          | 0          | 0          |   0.0 |  0.00
Comm    | 0.0014927  | 0.0049727  | 0.0086742  |   2.7 | 12.58
Output  | 0          | 0          | 0          |   0.0 |  0.00
Modify  | 1.3555e-05 | 6.86e-05   | 0.00021462 |   0.0 |  0.17
Other   |            | 0.03304    |            |       | 83.58

Nlocal:        2130.74 ave        6157 max           0 min
Histogram: 130 1 175 24 116 27 30 79 6 12
Nghost:        12673.2 ave       28525 max        6067 min
Histogram: 152 97 63 133 50 56 25 15 5 4
Neighs:        21454.7 ave       64744 max           0 min
Histogram: 307 26 25 40 34 11 1 1 26 129

Total # of neighbors = 12872795
Ave neighs/atom = 10.069127
Ave special neighs/atom = 0.17960611
Neighbor list builds = 0
Dangerous builds = 0
Generated 0 of 15 mixed pair_coeff terms from geometric mixing rule
Last active /omp style is bond_style fene/omp
WARNING: More than one fix rigid (src/RIGID/fix_rigid.cpp:712)
WARNING: More than one fix rigid (src/RIGID/fix_rigid.cpp:712)
WARNING: More than one fix rigid (src/RIGID/fix_rigid.cpp:712)
Setting up Verlet run ...
  Unit style    : lj
  Current step  : 1991
  Time step     : 0.005
Per MPI rank memory allocation (min/avg/max) = 16.39 | 21.49 | 39.92 Mbytes
   Step     c_mobile_temp      PotEng         KinEng         TotEng         Press          Volume           Lx             Ly             Lz      
      1991   0.82867149    -0.065495991    0.290803       0.225307       0.07137953     792673.82      77.269564      77.269564      132.76316    
WARNING: Lost atoms: original 1278442 current 1278441
For more information see https://docs.lammps.org/err0008 (src/thermo.cpp:532)
      6991   9.349584e-05  -0.017398034    3.2810217e-05 -0.017365223   -1.1664137      792673.82      77.269564      77.269564      132.76316    
Loop time of 65.1305 on 600 procs for 5000 steps with 1278441 atoms

Performance: 33164.197 tau/day, 76.769 timesteps/s, 98.145 Matom-step/s
99.4% CPU use with 600 MPI tasks x 1 OpenMP threads

MPI task timing breakdown:
Section |  min time  |  avg time  |  max time  |%varavg| %total
---------------------------------------------------------------
Pair    | 0.0039015  | 1.1687     | 3.3456     | 113.5 |  1.79
Bond    | 0.0031316  | 0.017277   | 0.05574    |  13.2 |  0.03
Neigh   | 48.169     | 49.723     | 50.88      |   8.5 | 76.34
Comm    | 3.2257     | 8.2866     | 13.392     |  88.3 | 12.72
Output  | 0.019735   | 0.15049    | 0.21999    |  13.5 |  0.23
Modify  | 1.912      | 5.114      | 10.038     | 101.7 |  7.85
Other   |            | 0.6705     |            |       |  1.03

Nlocal:        2130.74 ave        6203 max           0 min
Histogram: 130 56 120 16 124 27 29 81 5 12
Nghost:          12702 ave       28860 max        6084 min
Histogram: 152 91 69 133 71 38 22 16 4 4
Neighs:        19873.3 ave       55816 max           0 min
Histogram: 266 58 14 21 37 34 13 5 41 111

Total # of neighbors = 11923975
Ave neighs/atom = 9.3269654
Ave special neighs/atom = 0.17960625
Neighbor list builds = 1094
Dangerous builds = 243
========================================
Phase 3a: Thermalizing before initial capture
========================================
Generated 0 of 15 mixed pair_coeff terms from geometric mixing rule
Last active /omp style is bond_style fene/omp
WARNING: More than one fix rigid (src/RIGID/fix_rigid.cpp:712)
WARNING: More than one fix rigid (src/RIGID/fix_rigid.cpp:712)
WARNING: More than one fix rigid (src/RIGID/fix_rigid.cpp:712)
Setting up Verlet run ...
  Unit style    : lj
  Current step  : 6991
  Time step     : 0.005
Per MPI rank memory allocation (min/avg/max) = 15.93 | 20.26 | 38.05 Mbytes
   Step     c_mobile_temp      PotEng         KinEng         TotEng         Press          Volume           Lx             Ly             Lz      
      6991   9.3496152e-05 -0.017398034    3.2810217e-05 -0.017365223   -1.1664056      792673.82      77.269564      77.269564      132.76316    
Loop time of 1.40248e-05 on 600 procs for 0 steps with 1278441 atoms

112.1% CPU use with 600 MPI tasks x 1 OpenMP threads

MPI task timing breakdown:
Section |  min time  |  avg time  |  max time  |%varavg| %total
---------------------------------------------------------------
Pair    | 0          | 0          | 0          |   0.0 |  0.00
Bond    | 0          | 0          | 0          |   0.0 |  0.00
Neigh   | 0          | 0          | 0          |   0.0 |  0.00
Comm    | 0          | 0          | 0          |   0.0 |  0.00
Output  | 0          | 0          | 0          |   0.0 |  0.00
Modify  | 0          | 0          | 0          |   0.0 |  0.00
Other   |            | 1.402e-05  |            |       |100.00

Nlocal:        2130.74 ave        6202 max           0 min
Histogram: 130 54 122 16 124 27 29 81 5 12
Nghost:        12701.9 ave       28860 max        6080 min
Histogram: 152 90 70 133 71 38 22 16 4 4
Neighs:        19889.1 ave       55963 max           0 min
Histogram: 266 58 14 22 37 33 13 6 43 108

Total # of neighbors = 11933462
Ave neighs/atom = 9.3343862
Ave special neighs/atom = 0.17960625
Neighbor list builds = 0
Dangerous builds = 0
>>> Pre-thermalization T = 9.3496152269630011041e-05
Generated 0 of 15 mixed pair_coeff terms from geometric mixing rule
Last active /omp style is bond_style fene/omp
WARNING: More than one fix rigid (src/RIGID/fix_rigid.cpp:712)
WARNING: More than one fix rigid (src/RIGID/fix_rigid.cpp:712)
WARNING: More than one fix rigid (src/RIGID/fix_rigid.cpp:712)
Setting up Verlet run ...
  Unit style    : lj
  Current step  : 6991
  Time step     : 0.005
Per MPI rank memory allocation (min/avg/max) = 15.93 | 20.26 | 38.05 Mbytes
   Step     c_mobile_temp      PotEng         KinEng         TotEng         Press          Volume           Lx             Ly             Lz      
      6991   9.3496152e-05 -0.017398034    3.2810217e-05 -0.017365223   -1.1664056      792673.82      77.269564      77.269564      132.76316    
     10000   0.33476558     0.029666827    0.1174779      0.14714472     0.13445068     792673.82      77.269564      77.269564      132.76316    
     20000   1.0024918      0.18263177     0.35180029     0.53443206     0.012430853    792673.82      77.269564      77.269564      132.76316    
     26991   0.99962049     0.18787183     0.35079267     0.5386645      0.038639895    792673.82      77.269564      77.269564      132.76316    
Loop time of 231.78 on 600 procs for 20000 steps with 1278441 atoms

Performance: 37276.664 tau/day, 86.289 timesteps/s, 110.315 Matom-step/s
99.4% CPU use with 600 MPI tasks x 1 OpenMP threads

MPI task timing breakdown:
Section |  min time  |  avg time  |  max time  |%varavg| %total
---------------------------------------------------------------
Pair    | 0.014645   | 4.8506     | 12.406     | 185.9 |  2.09
Bond    | 0.012154   | 0.069302   | 0.22349    |  24.7 |  0.03
Neigh   | 166.03     | 170.43     | 173.56     |  13.8 | 73.53
Comm    | 12.449     | 31.132     | 50.244     | 167.8 | 13.43
Output  | 0.00045017 | 0.00049923 | 0.00061156 |   0.0 |  0.00
Modify  | 9.3365     | 22.659     | 42.449     | 191.6 |  9.78
Other   |            | 2.642      |            |       |  1.14

Nlocal:        2130.74 ave        6437 max           0 min
Histogram: 130 156 20 21 120 26 29 82 4 12
Nghost:        12743.7 ave       29711 max        5295 min
Histogram: 130 37 145 98 106 35 21 14 10 4
Neighs:        19258.7 ave       44298 max           0 min
Histogram: 150 15 106 58 1 27 57 38 89 59

Total # of neighbors = 11555214
Ave neighs/atom = 9.0385196
Ave special neighs/atom = 0.17960625
Neighbor list builds = 3412
Dangerous builds = 0
>>> Post-thermalization T = 0.99962048974642558896
Rg_xx = 228.593321074801  †’  Lx_rg = 52.374801697931097522
Rg_yy = 223.050010504544  †’  Ly_rg = 51.735868853770398346
Rg_zz = 765.055646315931  †’  Lz_rg = 95.815801180134997139
BB:  Lx=54.440659520814300265 Ly=52.654589347296798962 Lz=104.60524586385000134
hw_x = 27.2147452731485
hw_y = 26.8827460285352
hw_z = 49.7873507435736
>>> Initial gel thickness (Rg): L0 = 95.815801180135
>>> Initial gel thickness (BB): L0 = 104.60524586385000134
========================================
Phase 3b: Production €” piston forcing
========================================
  1 rigid bodies with 63221 atoms
WARNING: Temperature for fix modify is not for group all (src/fix_nh.cpp:1402)
>>> Starting Phase 3 production run (nsteps = 50000)
>>> compression_mode = 1
Generated 0 of 15 mixed pair_coeff terms from geometric mixing rule
Last active /omp style is bond_style fene/omp
WARNING: More than one fix rigid (src/RIGID/fix_rigid.cpp:712)
WARNING: More than one fix rigid (src/RIGID/fix_rigid.cpp:712)
WARNING: More than one fix rigid (src/RIGID/fix_rigid.cpp:712)
Setting up Verlet run ...
  Unit style    : lj
  Current step  : 26991
  Time step     : 0.005
Per MPI rank memory allocation (min/avg/max) = 18.95 | 24.54 | 47.09 Mbytes
   Step     c_mobile_temp      PotEng         KinEng         TotEng         Press          Volume           Lx             Ly             Lz      
     26991   0.99962049     0.18787183     0.35079267     0.5386645      0.04109008     792673.82      77.269564      77.269564      132.76316    
>>> gel_strain = -2.0226131655629200345 %
     30000   0.99914323     0.19028384     0.35066545     0.54094929     0.16444083     792673.82      77.269564      77.269564      132.76316    
>>> gel_strain = -0.50774992116840000911 %
     40000   0.9967573      0.19002192     0.34987972     0.53990164     0.11636827     792673.82      77.269564      77.269564      132.76316    
>>> gel_strain = -1.0882991630170599784 %
     50000   1.0003569      0.19228598     0.35117577     0.54346175     0.043781103    792673.82      77.269564      77.269564      132.76316    
>>> gel_strain = -0.72745941931080604359 %
     60000   1.0021529      0.19308044     0.35184361     0.54492405    -0.0065348612   792673.82      77.269564      77.269564      132.76316    
>>> gel_strain = -0.77822498284834196181 %
     70000   1.0017302      0.19266956     0.35173781     0.54440737    -0.0044067205   792673.82      77.269564      77.269564      132.76316    
     76991   1.0022375      0.19128323     0.35194851     0.54323174     0.080712705    792673.82      77.269564      77.269564      132.76316    
Loop time of 698.366 on 600 procs for 50000 steps with 1278441 atoms

Performance: 30929.326 tau/day, 71.596 timesteps/s, 91.531 Matom-step/s
99.3% CPU use with 600 MPI tasks x 1 OpenMP threads

MPI task timing breakdown:
Section |  min time  |  avg time  |  max time  |%varavg| %total
---------------------------------------------------------------
Pair    | 2.8416     | 45.785     | 113.59     | 415.2 |  6.56
Bond    | 0.99645    | 8.3063     | 33.959     | 187.8 |  1.19
Neigh   | 354.33     | 365.73     | 374.77     |  25.5 | 52.37
Comm    | 37.081     | 114.05     | 229.39     | 450.1 | 16.33
Output  | 0.023128   | 0.11406    | 0.19984    |  17.5 |  0.02
Modify  | 66.597     | 145.77     | 256.86     | 466.0 | 20.87
Other   |            | 18.6       |            |       |  2.66

Nlocal:        2130.74 ave        6459 max           0 min
Histogram: 130 156 20 21 120 26 30 82 3 12
Nghost:        12741.2 ave       25795 max        5944 min
Histogram: 121 26 155 36 116 68 37 31 4 6
Neighs:        19215.2 ave       42562 max           0 min
Histogram: 150 7 114 59 0 8 51 54 62 95

Total # of neighbors = 11529108
Ave neighs/atom = 9.0180994
Ave special neighs/atom = 0.17960625
Neighbor list builds = 8338
Dangerous builds = 0
>>> 10% compression reached (or nsteps exhausted)
>>> Freezing piston and starting stress relaxation
  1 rigid bodies with 63221 atoms
Generated 0 of 15 mixed pair_coeff terms from geometric mixing rule
Last active /omp style is bond_style fene/omp
WARNING: More than one fix rigid (src/RIGID/fix_rigid.cpp:712)
WARNING: More than one fix rigid (src/RIGID/fix_rigid.cpp:712)
WARNING: More than one fix rigid (src/RIGID/fix_rigid.cpp:712)
Setting up Verlet run ...
  Unit style    : lj
  Current step  : 76991
  Time step     : 0.005
Per MPI rank memory allocation (min/avg/max) = 21.75 | 29.99 | 55.96 Mbytes
   Step     c_mobile_temp      PotEng         KinEng         TotEng         Press          Volume           Lx             Ly             Lz      
     76991   1.0022375      0.19128323     0.35171104     0.54299428     0.079023409    792673.82      77.269564      77.269564      132.76316    
>>> gel_strain = -0.81974810363193195695 %
     80000   0.99897174     0.19220521     0.35056501     0.54277022     0.036827956    792673.82      77.269564      77.269564      132.76316    
>>> gel_strain = -0.77432094762019998413 %
     90000   1.0016788      0.19311764     0.351515       0.54463264     0.0031503401   792673.82      77.269564      77.269564      132.76316    
>>> gel_strain = -0.70781166377891302499 %
    100000   0.99787316     0.19384304     0.35017949     0.54402253     0.010875624    792673.82      77.269564      77.269564      132.76316    
>>> gel_strain = -0.59787159187901495194 %
    110000   0.99971377     0.19154866     0.35082541     0.54237407    -0.048644028    792673.82      77.269564      77.269564      132.76316    
>>> gel_strain = -0.47576806894666101577 %
    120000   1.0009857      0.19003013     0.35127176     0.54130189    -0.033916377    792673.82      77.269564      77.269564      132.76316    
    126991   0.99831596     0.18849362     0.35033488     0.53882851     0.078653218    792673.82      77.269564      77.269564      132.76316    
Loop time of 509.318 on 600 procs for 50000 steps with 1278441 atoms

Performance: 42409.667 tau/day, 98.171 timesteps/s, 125.505 Matom-step/s
99.3% CPU use with 600 MPI tasks x 1 OpenMP threads

MPI task timing breakdown:
Section |  min time  |  avg time  |  max time  |%varavg| %total
---------------------------------------------------------------
Pair    | 0.12647    | 12.214     | 25.996     | 263.2 |  2.40
Bond    | 0.074403   | 0.31825    | 0.79212    |  28.7 |  0.06
Neigh   | 329.14     | 339.46     | 347.33     |  23.8 | 66.65
Comm    | 30.879     | 77.565     | 124.42     | 264.2 | 15.23
Output  | 0.019891   | 0.10844    | 0.18463    |  16.1 |  0.02
Modify  | 38.093     | 71.951     | 120.88     | 272.3 | 14.13
Other   |            | 7.704      |            |       |  1.51

Nlocal:        2130.74 ave        6468 max           0 min
Histogram: 130 156 20 18 123 26 31 81 3 12
Nghost:        12741.3 ave       25827 max        5919 min
Histogram: 121 26 155 36 117 67 37 31 4 6
Neighs:        19247.7 ave       41588 max           0 min
Histogram: 150 2 114 64 0 7 45 57 39 122

Total # of neighbors = 11548620
Ave neighs/atom = 9.0333617
Ave special neighs/atom = 0.17960625
Neighbor list builds = 8322
Dangerous builds = 0
========================================
Simulation complete
========================================
System init for write_data ...
Generated 0 of 15 mixed pair_coeff terms from geometric mixing rule
Last active /omp style is bond_style fene/omp
WARNING: More than one fix rigid (src/RIGID/fix_rigid.cpp:712)
WARNING: More than one fix rigid (src/RIGID/fix_rigid.cpp:712)
WARNING: More than one fix rigid (src/RIGID/fix_rigid.cpp:712)
WARNING: Not all mixed pair coeffs generated from mixing. Use write_data with 'pair ij' option to store all pair coeffs. (src/write_data.cpp:364)
Total wall time: 0:26:09
======================================
Running post-processing...
======================================
Generating convergence plot...
Generating stress profiles...
Found data file: ./final_flow_walled_slab_support_5beads_tall_4_1.0_1.05_15000000_1.0_1.05_50000.data
Stress profile saved to ./output_plots/walled_slab_support_5beads_tall_4_1.0_1.05_15000000_1.0_1.05_50000_stress.png
No volume data found for walled_slab_support_5beads_tall_4_1.0_1.05_15000000_1.0_1.05_50000, skipping volume fraction plots
Generating piston plots...
Read 20 position points, 20 velocity points
Piston plot saved to ./output_plots/walled_slab_support_5beads_tall_4_1.0_1.05_15000000_1.0_1.05_50000_piston.png

=== Piston Summary ===
Initial position: 121.5395
Final position:   104.1407
Total displacement: -17.3987
Steady-state velocity: 0.00e+00 Â± 0.00e+00
Generating computational efficiency plot...
Found data file: ./data_files/walled_slab_support_5beads_tall_4_1.0_1.05_15000000.data
Mobile atoms: 1152000
======================================
Done! Results are in: /jet/home/dpollard/Documents/lammps_runs/slab_with_flow_walled_slab_support_5beads_tall_4_1.0_1.05_15000000_1.0_1.05_20260214_172545
======================================
