======================================
Working directory: /jet/home/dpollard/Documents/lammps_runs/slab_with_flow_walled_slab_support_5beads_tall_3_1.0_1.4_20000000_1.0_1.4_20260130_170021
Trajectory directory (scratch): /ocean/projects/chm250028p/dpollard/lammps_trajectories/slab_with_flow_walled_slab_support_5beads_tall_3_1.0_1.4_20000000_1.0_1.4_20260130_170021
======================================
Running LAMMPS in slab_with_flow with:
  dataname=walled_slab_support_5beads_tall_3_1.0_1.4_20000000
  epsSS=1.0, epsSP=1.4
  nsteps=2000000, oldsteps=0, totsteps=2000000
SLURM tasks per node: 120
SLURM CPUs per task: 1
SLURM_GPUS_ON_NODE: 
GPUs allocated: 
Running CPU-only with 600 tasks
LAMMPS (22 Jul 2025)
  using 1 OpenMP thread(s) per MPI task
using multi-threaded neighbor list subroutines
Reading data file ...
  orthogonal box = (-5.9305206 -5.9305206 -8.5890298) to (75.530521 75.530521 109.38903)
  6 by 10 by 10 MPI processor grid
  reading atoms ...
  1715566 atoms
  scanning bonds ...
  3 = max bonds/atom
  orthogonal box = (-5.9305206 -5.9305206 -8.5890298) to (75.530521 75.530521 109.38903)
  6 by 10 by 10 MPI processor grid
  reading bonds ...
  146951 bonds
Finding 1-2 1-3 1-4 neighbors ...
  special bond factors lj:    0        0        0       
  special bond factors coul:  0        0        0       
     4 = max # of 1-2 neighbors
     4 = max # of 1-3 neighbors
     8 = max # of 1-4 neighbors
    12 = max # of special neighbors
  special bonds CPU = 0.165 seconds
  read_data CPU = 5.037 seconds
========================================
Flow simulation: walled_slab_support_5beads_tall_3_1.0_1.4_20000000
Interaction: epsSS=1.0, epsSP=1.4
Production steps: 2000000
Piston force per bead: -0.01
========================================
129770 atoms in group polymer
412670 atoms in group solvent
69948 atoms in group support
69948 atoms in group piston
1033230 atoms in group walls
542440 atoms in group mobile
682336 atoms in group gel_system
Finding 1-2 1-3 1-4 neighbors ...
  special bond factors lj:    0        1        1       
  special bond factors coul:  0        1        1       
     4 = max # of 1-2 neighbors
    12 = max # of special neighbors
  special bonds CPU = 0.062 seconds
  1 rigid bodies with 69948 atoms
  1 rigid bodies with 69948 atoms
  1 rigid bodies with 1033230 atoms
========================================
Phase 1: Soft push to resolve solvent-piston overlaps
========================================
Generated 0 of 15 mixed pair_coeff terms from geometric mixing rule
Hybrid pair style last /omp style soft
Last active /omp style is bond_style fene/omp
WARNING: More than one fix rigid (src/RIGID/fix_rigid.cpp:712)
WARNING: More than one fix rigid (src/RIGID/fix_rigid.cpp:712)
WARNING: More than one fix rigid (src/RIGID/fix_rigid.cpp:712)
Neighbor list info ...
  update: every = 1 steps, delay = 0 steps, check = yes
  max neighbors/atom: 2000, page size: 100000
  master list distance cutoff = 2.8
  ghost atom cutoff = 5
  binsize = 1.4, bins = 59 59 85
  2 neighbor lists, perpetual/occasional/extra = 2 0 0
  (1) pair lj/cut, perpetual
      attributes: half, newton on, omp, cut 2.8
      pair build: half/bin/newton/omp
      stencil: half/bin/3d
      bin: standard
  (2) pair soft, perpetual, skip from (1)
      attributes: half, newton on, omp
      pair build: skip/omp
      stencil: none
      bin: none
Setting up Verlet run ...
  Unit style    : lj
  Current step  : 0
  Time step     : 0.005
Per MPI rank memory allocation (min/avg/max) = 18.21 | 27.81 | 51.79 Mbytes
   Step          Temp          PotEng         KinEng         TotEng         Press          Volume           Lx             Ly             Lz      
         0   0              0.1671972      0              0.1671972      0.1142735      782890.75      81.461041      81.461041      117.97806    
      1000   1.1089643      0.029272005    0.52596531     0.55523732     2.7962045      782890.75      81.461041      81.461041      117.97806    
Loop time of 43.0039 on 600 procs for 1000 steps with 1715566 atoms

Performance: 10045.598 tau/day, 23.254 timesteps/s, 39.893 Matom-step/s
99.2% CPU use with 600 MPI tasks x 1 OpenMP threads

MPI task timing breakdown:
Section |  min time  |  avg time  |  max time  |%varavg| %total
---------------------------------------------------------------
Pair    | 0.81097    | 1.1251     | 1.9667     |  14.0 |  2.62
Bond    | 0.0012356  | 0.017131   | 0.033487   |   5.1 |  0.04
Neigh   | 31.916     | 33.233     | 34.409     |  11.5 | 77.28
Comm    | 1.3053     | 3.9316     | 6.3642     |  61.4 |  9.14
Output  | 0.0036304  | 0.026803   | 0.047051   |   7.8 |  0.06
Modify  | 2.7015     | 4.0176     | 5.4203     |  32.1 |  9.34
Other   |            | 0.6526     |            |       |  1.52

Nlocal:        2859.28 ave        7903 max         997 min
Histogram: 256 59 5 128 7 65 42 24 12 2
Nghost:        19234.4 ave       43340 max        6190 min
Histogram: 224 12 44 30 113 14 87 53 11 12
Neighs:        65333.6 ave      125525 max       30359 min
Histogram: 16 117 155 102 74 45 36 21 24 10

Total # of neighbors = 39200180
Ave neighs/atom = 22.849707
Ave special neighs/atom = 0.17131489
Neighbor list builds = 487
Dangerous builds = 0
Generated 0 of 15 mixed pair_coeff terms from geometric mixing rule
Hybrid pair style last /omp style soft
Last active /omp style is bond_style fene/omp
WARNING: More than one fix rigid (src/RIGID/fix_rigid.cpp:712)
WARNING: More than one fix rigid (src/RIGID/fix_rigid.cpp:712)
WARNING: More than one fix rigid (src/RIGID/fix_rigid.cpp:712)
Setting up cg style minimization ...
  Unit style    : lj
  Current step  : 1000
Per MPI rank memory allocation (min/avg/max) = 20.75 | 31.96 | 58.4 Mbytes
   Step          Temp          PotEng         KinEng         TotEng         Press          Volume           Lx             Ly             Lz      
      1000   1.1089643      0.029272005    0.52596531     0.55523732     2.7962045      782890.75      81.461041      81.461041      117.97806    
      1855   1.1089643     -0.56200821     0.52596531    -0.036042894   -0.44232997     782890.75      81.461041      81.461041      117.97806    
Loop time of 20.3884 on 600 procs for 855 steps with 1715566 atoms

99.2% CPU use with 600 MPI tasks x 1 OpenMP threads

Minimization stats:
  Stopping criterion = energy tolerance
  Energy initial, next-to-last, final = 
    0.0292720051341017 -0.561952834390138 -0.562008208621709
  Force two-norm initial, final = 30294.948 520.40355
  Force max component initial, final = 2081.965 128.66363
  Final line search alpha, max atom move = 0.00071033556 0.091394352
  Iterations, force evaluations = 855 924

MPI task timing breakdown:
Section |  min time  |  avg time  |  max time  |%varavg| %total
---------------------------------------------------------------
Pair    | 0.18221    | 0.82346    | 1.7541     |  29.7 |  4.04
Bond    | 0.00072144 | 0.012066   | 0.0277     |   5.0 |  0.06
Neigh   | 14.285     | 14.955     | 15.516     |   8.4 | 73.35
Comm    | 0.89432    | 2.7603     | 4.7375     |  59.2 | 13.54
Output  | 0          | 0          | 0          |   0.0 |  0.00
Modify  | 0.010376   | 0.078138   | 0.25317    |  24.9 |  0.38
Other   |            | 1.759      |            |       |  8.63

Nlocal:        2859.28 ave        7878 max        1052 min
Histogram: 256 61 3 128 9 63 45 21 12 2
Nghost:        19219.6 ave       42923 max        6783 min
Histogram: 224 37 19 32 111 27 74 52 12 12
Neighs:        43610.5 ave      127456 max        2666 min
Histogram: 59 101 115 71 216 6 6 8 11 7

Total # of neighbors = 26166285
Ave neighs/atom = 15.252275
Ave special neighs/atom = 0.17131489
Neighbor list builds = 234
Dangerous builds = 2
Soft push complete - overlaps resolved
========================================
Phase 2: Switching to full LJ interactions
========================================
Generated 0 of 15 mixed pair_coeff terms from geometric mixing rule
Last active /omp style is bond_style fene/omp
WARNING: More than one fix rigid (src/RIGID/fix_rigid.cpp:712)
WARNING: More than one fix rigid (src/RIGID/fix_rigid.cpp:712)
WARNING: More than one fix rigid (src/RIGID/fix_rigid.cpp:712)
Neighbor list info ...
  update: every = 1 steps, delay = 0 steps, check = yes
  max neighbors/atom: 2000, page size: 100000
  master list distance cutoff = 2.8
  ghost atom cutoff = 5
  binsize = 1.4, bins = 59 59 85
  1 neighbor lists, perpetual/occasional/extra = 1 0 0
  (1) pair lj/cut/omp, perpetual
      attributes: half, newton on, omp
      pair build: half/bin/newton/omp
      stencil: half/bin/3d
      bin: standard
Setting up cg style minimization ...
  Unit style    : lj
  Current step  : 1855
Per MPI rank memory allocation (min/avg/max) = 20.12 | 31.15 | 56.98 Mbytes
   Step          Temp          PotEng         KinEng         TotEng         Press          Volume           Lx             Ly             Lz      
      1855   1.1089643     -0.563075       0.52596531    -0.037109684   -0.44160071     782890.75      81.461041      81.461041      117.97806    
      1856   1.1089643     -0.56308091     0.52596531    -0.037115596   -0.4426605      782890.75      81.461041      81.461041      117.97806    
Loop time of 0.0921545 on 600 procs for 1 steps with 1715566 atoms

99.3% CPU use with 600 MPI tasks x 1 OpenMP threads

Minimization stats:
  Stopping criterion = energy tolerance
  Energy initial, next-to-last, final = 
    -0.563074998001286 -0.563074998001286 -0.563080910468951
  Force two-norm initial, final = 724.54675 329.34228
  Force max component initial, final = 189.48733 54.348973
  Final line search alpha, max atom move = 3.2983736e-05 0.0017926322
  Iterations, force evaluations = 1 10

MPI task timing breakdown:
Section |  min time  |  avg time  |  max time  |%varavg| %total
---------------------------------------------------------------
Pair    | 0.00096594 | 0.0089368  | 0.019492   |   4.3 |  9.70
Bond    | 8.247e-06  | 0.00013921 | 0.00032206 |   0.0 |  0.15
Neigh   | 0          | 0          | 0          |   0.0 |  0.00
Comm    | 0.0054955  | 0.024896   | 0.04142    |   5.7 | 27.02
Output  | 0          | 0          | 0          |   0.0 |  0.00
Modify  | 7.8387e-05 | 0.00046494 | 0.0022564  |   0.0 |  0.50
Other   |            | 0.05772    |            |       | 62.63

Nlocal:        2859.28 ave        7879 max        1052 min
Histogram: 256 61 3 128 9 63 45 21 12 2
Nghost:        19219.6 ave       42924 max        6782 min
Histogram: 224 37 19 32 111 27 74 52 12 12
Neighs:        37523.9 ave       61199 max        1343 min
Histogram: 58 16 23 82 59 71 7 23 104 157

Total # of neighbors = 22514366
Ave neighs/atom = 13.123579
Ave special neighs/atom = 0.17131489
Neighbor list builds = 0
Dangerous builds = 0
Generated 0 of 15 mixed pair_coeff terms from geometric mixing rule
Last active /omp style is bond_style fene/omp
WARNING: More than one fix rigid (src/RIGID/fix_rigid.cpp:712)
WARNING: More than one fix rigid (src/RIGID/fix_rigid.cpp:712)
WARNING: More than one fix rigid (src/RIGID/fix_rigid.cpp:712)
Setting up Verlet run ...
  Unit style    : lj
  Current step  : 1856
  Time step     : 0.005
Per MPI rank memory allocation (min/avg/max) = 18.99 | 29.03 | 52.48 Mbytes
   Step          Temp          PotEng         KinEng         TotEng         Press          Volume           Lx             Ly             Lz      
      1856   1.1089643     -0.56308091     0.52596531    -0.037115596   -0.67315101     782890.75      81.461041      81.461041      117.97806    
WARNING: Lost atoms: original 1715566 current 1715565
For more information see https://docs.lammps.org/err0008 (src/thermo.cpp:532)
      6856   0             -0.57841675     0             -0.57841675    -2.3057341      782890.75      81.461041      81.461041      117.97806    
Loop time of 70.6781 on 600 procs for 5000 steps with 1715565 atoms

Performance: 30561.083 tau/day, 70.743 timesteps/s, 121.365 Matom-step/s
99.2% CPU use with 600 MPI tasks x 1 OpenMP threads

MPI task timing breakdown:
Section |  min time  |  avg time  |  max time  |%varavg| %total
---------------------------------------------------------------
Pair    | 0.20253    | 2.2198     | 3.3281     |  58.5 |  3.14
Bond    | 0.0032139  | 0.024047   | 0.04598    |   5.8 |  0.03
Neigh   | 43.092     | 45.171     | 47.053     |  15.6 | 63.91
Comm    | 4.3237     | 13.535     | 22.273     | 129.8 | 19.15
Output  | 0.01766    | 0.13911    | 0.23651    |  16.7 |  0.20
Modify  | 3.4113     | 8.5675     | 15.223     | 110.9 | 12.12
Other   |            | 1.022      |            |       |  1.45

Nlocal:        2859.28 ave        7713 max        1121 min
Histogram: 256 64 0 127 14 53 47 22 15 2
Nghost:        19231.3 ave       42381 max        6658 min
Histogram: 224 19 37 8 60 85 85 55 15 12
Neighs:        36534.3 ave       54232 max         250 min
Histogram: 30 25 27 34 41 65 46 52 89 191

Total # of neighbors = 21920566
Ave neighs/atom = 12.777462
Ave special neighs/atom = 0.17131499
Neighbor list builds = 734
Dangerous builds = 314
========================================
Phase 3: Production flow with piston forcing
========================================
  1 rigid bodies with 69948 atoms
WARNING: Temperature for fix modify is not for group all (src/fix_nh.cpp:1402)
Generated 0 of 15 mixed pair_coeff terms from geometric mixing rule
Last active /omp style is bond_style fene/omp
WARNING: More than one fix rigid (src/RIGID/fix_rigid.cpp:712)
WARNING: More than one fix rigid (src/RIGID/fix_rigid.cpp:712)
WARNING: More than one fix rigid (src/RIGID/fix_rigid.cpp:712)
Setting up Verlet run ...
  Unit style    : lj
  Current step  : 6856
  Time step     : 0.005
Per MPI rank memory allocation (min/avg/max) = 17.63 | 27.5 | 50.37 Mbytes
   Step          Temp          PotEng         KinEng         TotEng         Press          Volume           Lx             Ly             Lz      
      6856   0             -0.57841675     0             -0.57841675    -2.2682594      782890.75      81.461041      81.461041      117.97806    
Loop time of 1.24285e-05 on 600 procs for 0 steps with 1715565 atoms

112.1% CPU use with 600 MPI tasks x 1 OpenMP threads

MPI task timing breakdown:
Section |  min time  |  avg time  |  max time  |%varavg| %total
---------------------------------------------------------------
Pair    | 0          | 0          | 0          |   0.0 |  0.00
Bond    | 0          | 0          | 0          |   0.0 |  0.00
Neigh   | 0          | 0          | 0          |   0.0 |  0.00
Comm    | 0          | 0          | 0          |   0.0 |  0.00
Output  | 0          | 0          | 0          |   0.0 |  0.00
Modify  | 0          | 0          | 0          |   0.0 |  0.00
Other   |            | 1.243e-05  |            |       |100.00

Nlocal:        2859.28 ave        7713 max        1120 min
Histogram: 256 64 0 127 14 53 47 22 15 2
Nghost:        19231.2 ave       42383 max        6664 min
Histogram: 224 20 36 8 61 85 84 55 15 12
Neighs:        36536.8 ave       54184 max         248 min
Histogram: 30 24 28 33 42 63 48 52 89 191

Total # of neighbors = 21922096
Ave neighs/atom = 12.778353
Ave special neighs/atom = 0.17131499
Neighbor list builds = 0
Dangerous builds = 0
Rg_xx = 399.54146464649
Rg_yy = 404.574173943089
Rg_zz = 732.285656474942
hw_x = 32.3814239930589
hw_y = 32.5847274362737
hw_z = 43.8384588786244
Generated 0 of 15 mixed pair_coeff terms from geometric mixing rule
Last active /omp style is bond_style fene/omp
WARNING: More than one fix rigid (src/RIGID/fix_rigid.cpp:712)
WARNING: More than one fix rigid (src/RIGID/fix_rigid.cpp:712)
WARNING: More than one fix rigid (src/RIGID/fix_rigid.cpp:712)
Setting up Verlet run ...
  Unit style    : lj
  Current step  : 6856
  Time step     : 0.005
Per MPI rank memory allocation (min/avg/max) = 20.64 | 33.18 | 62.38 Mbytes
   Step          Temp          PotEng         KinEng         TotEng         Press          Volume           Lx             Ly             Lz      
      6856   0             -0.57841675     0             -0.57841675    -2.2682594      782890.75      81.461041      81.461041      117.97806    
    100000   0.99959738    -0.30732777     0.47409361     0.16676584     0.43330516     782890.75      81.461041      81.461041      117.97806    
    200000   1.0008816     -0.30707753     0.47470267     0.16762514     0.20229144     782890.75      81.461041      81.461041      117.97806    
    300000   0.99996625    -0.30505094     0.47426856     0.16921762     0.51066039     782890.75      81.461041      81.461041      117.97806    
    400000   1.0000072     -0.30591872     0.47428798     0.16836926     0.56708474     782890.75      81.461041      81.461041      117.97806    
    500000   0.99987449    -0.30632919     0.47422504     0.16789585     0.19460706     782890.75      81.461041      81.461041      117.97806    
    600000   1.0005039     -0.3061616      0.47452354     0.16836194     0.30057555     782890.75      81.461041      81.461041      117.97806    
    700000   1.0018613     -0.30381008     0.47516735     0.17135727     0.27890851     782890.75      81.461041      81.461041      117.97806    
    800000   1.0006682     -0.30467852     0.47460149     0.16992296     0.3743027      782890.75      81.461041      81.461041      117.97806    
    900000   0.99989126    -0.30514924     0.47423299     0.16908375     0.17067787     782890.75      81.461041      81.461041      117.97806    
   1000000   1.0003604     -0.30493035     0.4744555      0.16952515     0.21860121     782890.75      81.461041      81.461041      117.97806    
   1100000   0.99887259    -0.30759442     0.47374985     0.16615544     0.061494097    782890.75      81.461041      81.461041      117.97806    
   1200000   1.0013628     -0.30527773     0.47493093     0.1696532      0.38421402     782890.75      81.461041      81.461041      117.97806    
   1300000   0.99932344    -0.3044092      0.47396369     0.16955449     0.39583402     782890.75      81.461041      81.461041      117.97806    
   1400000   1.0003264     -0.30640423     0.47443938     0.16803515     0.42455208     782890.75      81.461041      81.461041      117.97806    
   1500000   1.0002862     -0.30647753     0.47442031     0.16794278     0.21298064     782890.75      81.461041      81.461041      117.97806    
   1600000   1.0005671     -0.30560349     0.47455352     0.16895004     0.31792343     782890.75      81.461041      81.461041      117.97806    
   1700000   0.99692151    -0.30676273     0.47282448     0.16606175     0.23369117     782890.75      81.461041      81.461041      117.97806    
   1800000   0.99942308    -0.30530031     0.47401094     0.16871063     0.38400999     782890.75      81.461041      81.461041      117.97806    
   1900000   0.99865417    -0.30612997     0.47364626     0.16751628     0.32982321     782890.75      81.461041      81.461041      117.97806    
   2000000   0.99955028    -0.3072379      0.47407127     0.16683337     0.27828376     782890.75      81.461041      81.461041      117.97806    
   2006856   1.0008771     -0.30527235     0.47470057     0.16942822     0.42907368     782890.75      81.461041      81.461041      117.97806    
Loop time of 37702.2 on 600 procs for 2000000 steps with 1715565 atoms

Performance: 22916.437 tau/day, 53.047 timesteps/s, 91.006 Matom-step/s
99.1% CPU use with 600 MPI tasks x 1 OpenMP threads

MPI task timing breakdown:
Section |  min time  |  avg time  |  max time  |%varavg| %total
---------------------------------------------------------------
Pair    | 447.67     | 938.17     | 1147       | 502.8 |  2.49
Bond    | 2.3462     | 15.87      | 28.093     | 127.8 |  0.04
Neigh   | 24566      | 25728      | 26769      | 374.8 | 68.24
Comm    | 1914.8     | 5926.5     | 9467.4     |2601.9 | 15.72
Output  | 0.51462    | 1.9428     | 3.0256     |  57.2 |  0.01
Modify  | 2419.7     | 4631.5     | 7535.8     |2066.0 | 12.28
Other   |            | 459.8      |            |       |  1.22

Nlocal:        2859.28 ave        8084 max         998 min
Histogram: 256 64 0 128 6 66 40 26 12 2
Nghost:        19204.3 ave       44027 max        6779 min
Histogram: 252 28 0 28 106 46 68 46 19 7
Neighs:        37027.8 ave       45790 max       15324 min
Histogram: 12 10 33 23 44 82 44 51 63 238

Total # of neighbors = 22216669
Ave neighs/atom = 12.95006
Ave special neighs/atom = 0.17131499
Neighbor list builds = 406253
Dangerous builds = 0
========================================
Flow simulation complete
========================================
System init for write_data ...
Generated 0 of 15 mixed pair_coeff terms from geometric mixing rule
Last active /omp style is bond_style fene/omp
WARNING: More than one fix rigid (src/RIGID/fix_rigid.cpp:712)
WARNING: More than one fix rigid (src/RIGID/fix_rigid.cpp:712)
WARNING: More than one fix rigid (src/RIGID/fix_rigid.cpp:712)
WARNING: Not all mixed pair coeffs generated from mixing. Use write_data with 'pair ij' option to store all pair coeffs. (src/write_data.cpp:364)
Total wall time: 10:30:46
======================================
Running post-processing...
======================================
Generating convergence plot...
Plot saved to ./output_plots/convergence_plots/walled_slab_support_5beads_tall_3_1.0_1.4_20000000_1.0_1.4_2000000_convergence.png
Generating stress profiles...
Warning: Could not find data file (tried walled_slab_support_5beads_tall_3.data and walled_slab_support_5beads_tall_3_1.0_1.4_20000000_1.0_1.4_2000000.data), using default box dimensions
Stress profile saved to ./output_plots/walled_slab_support_5beads_tall_3_1.0_1.4_20000000_1.0_1.4_2000000_stress.png
No volume data found for walled_slab_support_5beads_tall_3_1.0_1.4_20000000_1.0_1.4_2000000, skipping volume fraction plots
Generating piston plots...
Read 40 position points, 40 velocity points
Piston plot saved to ./output_plots/walled_slab_support_5beads_tall_3_1.0_1.4_20000000_1.0_1.4_2000000_piston.png

=== Piston Summary ===
Initial position: 104.9440
Final position:   99.8615
Total displacement: -5.0825
Steady-state velocity: -1.64e-03 ± 2.97e-03
Generating computational efficiency plot...
Found data file: ./data_files/walled_slab_support_5beads_tall_3_1.0_1.4_20000000.data
Mobile atoms: 1575670
Tracking info written to /jet/home/dpollard/Documents/lammps_work/tracking.txt
Saved /jet/home/dpollard/Documents/lammps_work/time_vs_atoms.png
Saved /jet/home/dpollard/Documents/lammps_work/time_vs_timesteps.png
======================================
Done! Results are in: /jet/home/dpollard/Documents/lammps_runs/slab_with_flow_walled_slab_support_5beads_tall_3_1.0_1.4_20000000_1.0_1.4_20260130_170021
======================================
