======================================
Working directory: /jet/home/dpollard/Documents/lammps_runs/slab_with_flow_walled_slab_support_5beads_10x10x5_rho6_extra_padding43_1.5_1.4_10000000_1.5_1.4_20260109_120928
Trajectory directory (scratch): /ocean/projects/chm250028p/dpollard/lammps_trajectories/slab_with_flow_walled_slab_support_5beads_10x10x5_rho6_extra_padding43_1.5_1.4_10000000_1.5_1.4_20260109_120928
======================================
Running LAMMPS in slab_with_flow with:
  dataname=walled_slab_support_5beads_10x10x5_rho6_extra_padding43_1.5_1.4_10000000
  epsSS=1.5, epsSP=1.4
  nsteps=100000, oldsteps=0, totsteps=100000
SLURM tasks per node: 120
SLURM CPUs per task: 1
SLURM_GPUS_ON_NODE: 
GPUs allocated: 
Running CPU-only with 480 tasks
LAMMPS (22 Jul 2025)
  using 1 OpenMP thread(s) per MPI task
using multi-threaded neighbor list subroutines
Reading data file ...
  orthogonal box = (-6.8704069 -6.8704069 -4.3828458) to (93.870407 93.870407 59.882846)
  8 by 10 by 6 MPI processor grid
  reading atoms ...
  1988110 atoms
  scanning bonds ...
  3 = max bonds/atom
  orthogonal box = (-6.8704069 -6.8704069 -4.3828458) to (93.870407 93.870407 59.882846)
  8 by 10 by 6 MPI processor grid
  reading bonds ...
  143401 bonds
Finding 1-2 1-3 1-4 neighbors ...
  special bond factors lj:    0        0        0       
  special bond factors coul:  0        0        0       
     4 = max # of 1-2 neighbors
     4 = max # of 1-3 neighbors
     8 = max # of 1-4 neighbors
    12 = max # of special neighbors
  special bonds CPU = 0.157 seconds
  read_data CPU = 5.790 seconds
========================================
Flow simulation: walled_slab_support_5beads_10x10x5_rho6_extra_padding43_1.5_1.4_10000000
Interaction: epsSS=1.5, epsSP=1.4
Production steps: 100000
Piston force per bead: -0.1
========================================
126674 atoms in group polymer
309048 atoms in group solvent
109654 atoms in group support
109654 atoms in group piston
1333080 atoms in group walls
435722 atoms in group mobile
1679062 atoms in group gel_system
Finding 1-2 1-3 1-4 neighbors ...
  special bond factors lj:    0        1        1       
  special bond factors coul:  0        1        1       
     4 = max # of 1-2 neighbors
    12 = max # of special neighbors
  special bonds CPU = 0.060 seconds
  1 rigid bodies with 109654 atoms
  1 rigid bodies with 109654 atoms
  1 rigid bodies with 1333080 atoms
========================================
Phase 1: Soft push to resolve solvent-piston overlaps
========================================
Generated 0 of 15 mixed pair_coeff terms from geometric mixing rule
Hybrid pair style last /omp style soft
Last active /omp style is bond_style fene/omp
WARNING: More than one fix rigid (src/RIGID/fix_rigid.cpp:712)
WARNING: More than one fix rigid (src/RIGID/fix_rigid.cpp:712)
WARNING: More than one fix rigid (src/RIGID/fix_rigid.cpp:712)
Neighbor list info ...
  update: every = 1 steps, delay = 0 steps, check = yes
  max neighbors/atom: 2000, page size: 100000
  master list distance cutoff = 2.8
  ghost atom cutoff = 5
  binsize = 1.4, bins = 72 72 46
  2 neighbor lists, perpetual/occasional/extra = 2 0 0
  (1) pair lj/cut, perpetual
      attributes: half, newton on, omp, cut 2.8
      pair build: half/bin/newton/omp
      stencil: half/bin/3d
      bin: standard
  (2) pair soft, perpetual, skip from (1)
      attributes: half, newton on, omp
      pair build: skip/omp
      stencil: none
      bin: none
Setting up Verlet run ...
  Unit style    : lj
  Current step  : 0
  Time step     : 0.005
Per MPI rank memory allocation (min/avg/max) = 19.33 | 40.02 | 75.82 Mbytes
   Step          Temp          PotEng         KinEng         TotEng         Press          Volume           Lx             Ly             Lz      
         0   0             -0.015269601    0             -0.015269601    0.020612435    652213.97      100.74081      100.74081      64.265692    
      5000   0.99907623    -0.16217971     0.32844598     0.16626627     0.42701709     652213.97      100.74081      100.74081      64.265692    
Loop time of 389.478 on 480 procs for 5000 steps with 1988110 atoms

Performance: 5545.886 tau/day, 12.838 timesteps/s, 25.523 Matom-step/s
99.2% CPU use with 480 MPI tasks x 1 OpenMP threads

MPI task timing breakdown:
Section |  min time  |  avg time  |  max time  |%varavg| %total
---------------------------------------------------------------
Pair    | 5.4409     | 31.771     | 92.156     | 540.6 |  8.16
Bond    | 0.017085   | 0.095742   | 0.21012    |  13.4 |  0.02
Neigh   | 268.22     | 272.97     | 277.03     |  16.8 | 70.09
Comm    | 5.1575     | 41.979     | 102.69     | 490.9 | 10.78
Output  | 0.0021193  | 0.0021446  | 0.0021718  |   0.0 |  0.00
Modify  | 5.3806     | 41.033     | 98.776     | 497.7 | 10.54
Other   |            | 1.628      |            |       |  0.42

Nlocal:         4141.9 ave        9625 max        1190 min
Histogram: 192 96 0 0 0 0 65 15 86 26
Nghost:        20364.5 ave       43381 max        7273 min
Histogram: 144 0 72 64 48 8 48 64 0 32
Neighs:    2.28428e+06 ave 7.14204e+06 max       46015 min
Histogram: 288 0 0 0 0 0 64 55 48 25

Total # of neighbors = 1.0964568e+09
Ave neighs/atom = 551.50709
Ave special neighs/atom = 0.14425862
Neighbor list builds = 2486
Dangerous builds = 0
Soft push complete - overlaps resolved
========================================
Phase 2: Switching to full LJ interactions
========================================
Generated 0 of 15 mixed pair_coeff terms from geometric mixing rule
Last active /omp style is bond_style fene/omp
WARNING: More than one fix rigid (src/RIGID/fix_rigid.cpp:712)
WARNING: More than one fix rigid (src/RIGID/fix_rigid.cpp:712)
WARNING: More than one fix rigid (src/RIGID/fix_rigid.cpp:712)
Neighbor list info ...
  update: every = 1 steps, delay = 0 steps, check = yes
  max neighbors/atom: 2000, page size: 100000
  master list distance cutoff = 2.8
  ghost atom cutoff = 5
  binsize = 1.4, bins = 72 72 46
  1 neighbor lists, perpetual/occasional/extra = 1 0 0
  (1) pair lj/cut/omp, perpetual
      attributes: half, newton on, omp
      pair build: half/bin/newton/omp
      stencil: half/bin/3d
      bin: standard
Setting up cg style minimization ...
  Unit style    : lj
  Current step  : 5000
Per MPI rank memory allocation (min/avg/max) = 19.94 | 32.67 | 56.08 Mbytes
   Step          Temp          PotEng         KinEng         TotEng         Press          Volume           Lx             Ly             Lz      
      5000   0.99907623    -0.33403424     0.32844598    -0.0055882596   0.62702527     652213.97      100.74081      100.74081      64.265692    
      5277   0.99907623    -0.73425171     0.32844598    -0.40580573    -3.7120572      652213.97      100.74081      100.74081      64.265692    
Loop time of 2.51876 on 480 procs for 277 steps with 1988110 atoms

98.1% CPU use with 480 MPI tasks x 1 OpenMP threads

Minimization stats:
  Stopping criterion = energy tolerance
  Energy initial, next-to-last, final = 
    -0.334034237777068 -0.734180088674279  -0.73425170955426
  Force two-norm initial, final = 31180.507 778.01948
  Force max component initial, final = 1933.2997 272.29944
  Final line search alpha, max atom move = 4.3372766e-05 0.01181038
  Iterations, force evaluations = 277 281

MPI task timing breakdown:
Section |  min time  |  avg time  |  max time  |%varavg| %total
---------------------------------------------------------------
Pair    | 0.040367   | 0.23269    | 0.53031    |  18.0 |  9.24
Bond    | 0.00094315 | 0.0042472  | 0.0077115  |   2.5 |  0.17
Neigh   | 1.3621     | 1.3969     | 1.4287     |   1.7 | 55.46
Comm    | 0.13602    | 0.52974    | 0.85002    |  23.3 | 21.03
Output  | 0          | 0          | 0          |   0.0 |  0.00
Modify  | 0.0018956  | 0.017638   | 0.055034   |  11.0 |  0.70
Other   |            | 0.3376     |            |       | 13.40

Nlocal:         4141.9 ave        9634 max        1219 min
Histogram: 192 96 0 0 0 0 66 14 87 25
Nghost:        20376.9 ave       43334 max        7360 min
Histogram: 144 0 72 64 48 8 48 64 0 32
Neighs:        38712.1 ave       55175 max        5206 min
Histogram: 18 6 24 61 80 3 23 25 59 181

Total # of neighbors = 18581787
Ave neighs/atom = 9.3464582
Ave special neighs/atom = 0.14425862
Neighbor list builds = 20
Dangerous builds = 0
Generated 0 of 15 mixed pair_coeff terms from geometric mixing rule
Last active /omp style is bond_style fene/omp
WARNING: More than one fix rigid (src/RIGID/fix_rigid.cpp:712)
WARNING: More than one fix rigid (src/RIGID/fix_rigid.cpp:712)
WARNING: More than one fix rigid (src/RIGID/fix_rigid.cpp:712)
Setting up Verlet run ...
  Unit style    : lj
  Current step  : 5277
  Time step     : 0.005
Per MPI rank memory allocation (min/avg/max) = 18.82 | 30.38 | 51.58 Mbytes
   Step          Temp          PotEng         KinEng         TotEng         Press          Volume           Lx             Ly             Lz      
      5277   0.99907623    -0.73425171     0.32844598    -0.40580573    -1.5395766      652213.97      100.74081      100.74081      64.265692    
ERROR: Lost atoms: original 1988110 current 1988109
For more information see https://docs.lammps.org/err0008 (src/thermo.cpp:526)
======================================
Running post-processing...
======================================
Generating convergence plot...
Plot saved to ./output_plots/convergence_plots/walled_slab_support_5beads_10x10x5_rho6_extra_padding43_1.5_1.4_10000000_1.5_1.4_100000_convergence.png
Generating stress profiles...
No stress data found for walled_slab_support_5beads_10x10x5_rho6_extra_padding43_1.5_1.4_10000000_1.5_1.4_100000, skipping stress plots
No volume data found for walled_slab_support_5beads_10x10x5_rho6_extra_padding43_1.5_1.4_10000000_1.5_1.4_100000, skipping volume fraction plots
Generating piston plots...
Error: Piston position file not found: ./output_files/piston_data/piston_position_walled_slab_support_5beads_10x10x5_rho6_extra_padding43_1.5_1.4_10000000_1.5_1.4_100000.dat
Generating computational efficiency plot...
Found data file: ./data_files/walled_slab_support_5beads_10x10x5_rho6_extra_padding43_1.5_1.4_10000000.data
Mobile atoms: 1768802
Entry 'walled_slab_support_5beads_10x10x5_rho6_extra_padding43_1.5_1.4_10000000_1.5_1.4_100000' already exists in tracking file, skipping.
Tracking info written to /jet/home/dpollard/Documents/lammps_work/tracking.txt
Saved /jet/home/dpollard/Documents/lammps_work/time_vs_atoms.png
Saved /jet/home/dpollard/Documents/lammps_work/time_vs_timesteps.png
======================================
Done! Results are in: /jet/home/dpollard/Documents/lammps_runs/slab_with_flow_walled_slab_support_5beads_10x10x5_rho6_extra_padding43_1.5_1.4_10000000_1.5_1.4_20260109_120928
======================================
