======================================
Working directory: /jet/home/dpollard/Documents/lammps_runs/slab_with_flow_walled_slab_support_5beads_tall_3_1.5_1.4_20000000_1.5_1.4_20260120_215004
Trajectory directory (scratch): /ocean/projects/chm250028p/dpollard/lammps_trajectories/slab_with_flow_walled_slab_support_5beads_tall_3_1.5_1.4_20000000_1.5_1.4_20260120_215004
======================================
Running LAMMPS in slab_with_flow with:
  dataname=walled_slab_support_5beads_tall_3_1.5_1.4_20000000
  epsSS=1.5, epsSP=1.4
  nsteps=500000, oldsteps=0, totsteps=500000
SLURM tasks per node: 120
SLURM CPUs per task: 1
SLURM_GPUS_ON_NODE: 
GPUs allocated: 
Running CPU-only with 480 tasks
LAMMPS (22 Jul 2025)
  using 1 OpenMP thread(s) per MPI task
using multi-threaded neighbor list subroutines
Reading data file ...
  orthogonal box = (-4.8877761 -4.8877761 -7.0788481) to (74.487776 74.487776 107.87885)
  6 by 8 by 10 MPI processor grid
  reading atoms ...
  1622491 atoms
  scanning bonds ...
  3 = max bonds/atom
  orthogonal box = (-4.8877761 -4.8877761 -7.0788481) to (74.487776 74.487776 107.87885)
  6 by 8 by 10 MPI processor grid
  reading bonds ...
  146984 bonds
Finding 1-2 1-3 1-4 neighbors ...
  special bond factors lj:    0        0        0       
  special bond factors coul:  0        0        0       
     4 = max # of 1-2 neighbors
     4 = max # of 1-3 neighbors
     8 = max # of 1-4 neighbors
    12 = max # of special neighbors
  special bonds CPU = 0.155 seconds
  read_data CPU = 4.755 seconds
========================================
Flow simulation: walled_slab_support_5beads_tall_3_1.5_1.4_20000000
Interaction: epsSS=1.5, epsSP=1.4
Production steps: 500000
Piston force per bead: -0.5
========================================
129793 atoms in group polymer
389338 atoms in group solvent
69948 atoms in group support
69948 atoms in group piston
963464 atoms in group walls
519131 atoms in group mobile
659027 atoms in group gel_system
Finding 1-2 1-3 1-4 neighbors ...
  special bond factors lj:    0        1        1       
  special bond factors coul:  0        1        1       
     4 = max # of 1-2 neighbors
    12 = max # of special neighbors
  special bonds CPU = 0.062 seconds
  1 rigid bodies with 69948 atoms
  1 rigid bodies with 69948 atoms
  1 rigid bodies with 963464 atoms
========================================
Phase 1: Soft push to resolve solvent-piston overlaps
========================================
Generated 0 of 15 mixed pair_coeff terms from geometric mixing rule
Hybrid pair style last /omp style soft
Last active /omp style is bond_style fene/omp
WARNING: More than one fix rigid (src/RIGID/fix_rigid.cpp:712)
WARNING: More than one fix rigid (src/RIGID/fix_rigid.cpp:712)
WARNING: More than one fix rigid (src/RIGID/fix_rigid.cpp:712)
Neighbor list info ...
  update: every = 1 steps, delay = 0 steps, check = yes
  max neighbors/atom: 2000, page size: 100000
  master list distance cutoff = 2.8
  ghost atom cutoff = 5
  binsize = 1.4, bins = 57 57 83
  2 neighbor lists, perpetual/occasional/extra = 2 0 0
  (1) pair lj/cut, perpetual
      attributes: half, newton on, omp, cut 2.8
      pair build: half/bin/newton/omp
      stencil: half/bin/3d
      bin: standard
  (2) pair soft, perpetual, skip from (1)
      attributes: half, newton on, omp
      pair build: skip/omp
      stencil: none
      bin: none
Setting up Verlet run ...
  Unit style    : lj
  Current step  : 0
  Time step     : 0.005
Per MPI rank memory allocation (min/avg/max) = 17.94 | 28.43 | 52.16 Mbytes
   Step          Temp          PotEng         KinEng         TotEng         Press          Volume           Lx             Ly             Lz      
         0   0             -0.43794805     0             -0.43794805     0.085610388    724288.47      79.375552      79.375552      114.9577     
      1000   1.1841937     -0.57352505     0.56834605    -0.0051790035   2.7535041      724288.47      79.375552      79.375552      114.9577     
Loop time of 43.9073 on 480 procs for 1000 steps with 1622491 atoms

Performance: 9838.905 tau/day, 22.775 timesteps/s, 36.953 Matom-step/s
99.1% CPU use with 480 MPI tasks x 1 OpenMP threads

MPI task timing breakdown:
Section |  min time  |  avg time  |  max time  |%varavg| %total
---------------------------------------------------------------
Pair    | 1.0657     | 1.423      | 2.0986     |  12.6 |  3.24
Bond    | 0.0013187  | 0.020159   | 0.039478   |   5.9 |  0.05
Neigh   | 34.821     | 36.121     | 37.188     |  10.6 | 82.27
Comm    | 1.3026     | 3.7042     | 5.8028     |  58.8 |  8.44
Output  | 0.0043388  | 0.062149   | 0.095015   |  13.6 |  0.14
Modify  | 1.022      | 2.196      | 3.4276     |  39.5 |  5.00
Other   |            | 0.3812     |            |       |  0.87

Nlocal:        3380.19 ave        7972 max        1314 min
Histogram: 192 11 37 3 93 76 32 27 5 4
Nghost:          19747 ave       42577 max        7180 min
Histogram: 192 0 48 0 0 117 43 56 16 8
Neighs:        88180.3 ave      169213 max       38370 min
Histogram: 9 102 136 46 45 49 35 27 25 6

Total # of neighbors = 42326555
Ave neighs/atom = 26.08739
Ave special neighs/atom = 0.18118313
Neighbor list builds = 487
Dangerous builds = 0
Generated 0 of 15 mixed pair_coeff terms from geometric mixing rule
Hybrid pair style last /omp style soft
Last active /omp style is bond_style fene/omp
WARNING: More than one fix rigid (src/RIGID/fix_rigid.cpp:712)
WARNING: More than one fix rigid (src/RIGID/fix_rigid.cpp:712)
WARNING: More than one fix rigid (src/RIGID/fix_rigid.cpp:712)
Setting up cg style minimization ...
  Unit style    : lj
  Current step  : 1000
Per MPI rank memory allocation (min/avg/max) = 20.46 | 32.21 | 58.79 Mbytes
   Step          Temp          PotEng         KinEng         TotEng         Press          Volume           Lx             Ly             Lz      
      1000   1.1841937     -0.57352505     0.56834605    -0.0051790035   2.7535041      724288.47      79.375552      79.375552      114.9577     
      1368   1.1841937     -1.1500798      0.56834605    -0.58173376    -1.5344312      724288.47      79.375552      79.375552      114.9577     
Loop time of 7.66679 on 480 procs for 368 steps with 1622491 atoms

99.0% CPU use with 480 MPI tasks x 1 OpenMP threads

Minimization stats:
  Stopping criterion = energy tolerance
  Energy initial, next-to-last, final = 
    -0.573525050860601   -1.1499795105993  -1.15007980697577
  Force two-norm initial, final = 33198.917 729.06682
  Force max component initial, final = 1542.5909 359.28477
  Final line search alpha, max atom move = 0.00068777995 0.24710886
  Iterations, force evaluations = 368 373

MPI task timing breakdown:
Section |  min time  |  avg time  |  max time  |%varavg| %total
---------------------------------------------------------------
Pair    | 0.1285     | 0.43819    | 0.84917    |  17.2 |  5.72
Bond    | 0.00034133 | 0.0059019  | 0.015225   |   3.7 |  0.08
Neigh   | 5.2668     | 5.4816     | 5.6549     |   4.5 | 71.50
Comm    | 0.38279    | 1.0821     | 1.754      |  33.1 | 14.11
Output  | 0          | 0          | 0          |   0.0 |  0.00
Modify  | 0.0042928  | 0.032954   | 0.10614    |  15.8 |  0.43
Other   |            | 0.626      |            |       |  8.17

Nlocal:        3380.19 ave        7955 max        1381 min
Histogram: 192 24 24 9 87 78 31 27 5 3
Nghost:        19743.8 ave       42322 max        7405 min
Histogram: 192 0 48 0 0 112 48 56 16 8
Neighs:        68664.9 ave      169905 max       14407 min
Histogram: 23 49 75 226 50 24 5 6 6 16

Total # of neighbors = 32959159
Ave neighs/atom = 20.313924
Ave special neighs/atom = 0.18118313
Neighbor list builds = 81
Dangerous builds = 4
Soft push complete - overlaps resolved
========================================
Phase 2: Switching to full LJ interactions
========================================
Generated 0 of 15 mixed pair_coeff terms from geometric mixing rule
Last active /omp style is bond_style fene/omp
WARNING: More than one fix rigid (src/RIGID/fix_rigid.cpp:712)
WARNING: More than one fix rigid (src/RIGID/fix_rigid.cpp:712)
WARNING: More than one fix rigid (src/RIGID/fix_rigid.cpp:712)
Neighbor list info ...
  update: every = 1 steps, delay = 0 steps, check = yes
  max neighbors/atom: 2000, page size: 100000
  master list distance cutoff = 2.8
  ghost atom cutoff = 5
  binsize = 1.4, bins = 57 57 83
  1 neighbor lists, perpetual/occasional/extra = 1 0 0
  (1) pair lj/cut/omp, perpetual
      attributes: half, newton on, omp
      pair build: half/bin/newton/omp
      stencil: half/bin/3d
      bin: standard
Setting up cg style minimization ...
  Unit style    : lj
  Current step  : 1368
Per MPI rank memory allocation (min/avg/max) = 19.83 | 31.24 | 56.99 Mbytes
   Step          Temp          PotEng         KinEng         TotEng         Press          Volume           Lx             Ly             Lz      
      1368   1.1841937     -1.1521912      0.56834605    -0.5838452     -1.5326243      724288.47      79.375552      79.375552      114.9577     
      1369   1.1841937     -1.1522342      0.56834605    -0.58388818    -1.535449       724288.47      79.375552      79.375552      114.9577     
Loop time of 0.110387 on 480 procs for 1 steps with 1622491 atoms

99.1% CPU use with 480 MPI tasks x 1 OpenMP threads

Minimization stats:
  Stopping criterion = energy tolerance
  Energy initial, next-to-last, final = 
     -1.15219124372123  -1.15219124372123  -1.15223423088914
  Force two-norm initial, final = 1393.3655 515.24576
  Force max component initial, final = 359.28477 48.123393
  Final line search alpha, max atom move = 3.4791344e-05 0.0016742775
  Iterations, force evaluations = 1 5

MPI task timing breakdown:
Section |  min time  |  avg time  |  max time  |%varavg| %total
---------------------------------------------------------------
Pair    | 0.0011348  | 0.0059698  | 0.012026   |   3.1 |  5.41
Bond    | 5.121e-06  | 9.4151e-05 | 0.00035935 |   0.0 |  0.09
Neigh   | 0          | 0          | 0          |   0.0 |  0.00
Comm    | 0.0038155  | 0.013219   | 0.021619   |   4.0 | 11.98
Output  | 0          | 0          | 0          |   0.0 |  0.00
Modify  | 4.66e-05   | 0.0002814  | 0.00091354 |   0.0 |  0.25
Other   |            | 0.09082    |            |       | 82.28

Nlocal:        3380.19 ave        7954 max        1385 min
Histogram: 192 24 24 9 87 78 31 27 5 3
Nghost:          19744 ave       42323 max        7407 min
Histogram: 192 0 48 0 0 112 48 56 16 8
Neighs:        45417.6 ave       71740 max        5713 min
Histogram: 22 27 40 66 43 52 14 8 100 108

Total # of neighbors = 21800434
Ave neighs/atom = 13.436397
Ave special neighs/atom = 0.18118313
Neighbor list builds = 0
Dangerous builds = 0
Generated 0 of 15 mixed pair_coeff terms from geometric mixing rule
Last active /omp style is bond_style fene/omp
WARNING: More than one fix rigid (src/RIGID/fix_rigid.cpp:712)
WARNING: More than one fix rigid (src/RIGID/fix_rigid.cpp:712)
WARNING: More than one fix rigid (src/RIGID/fix_rigid.cpp:712)
Setting up Verlet run ...
  Unit style    : lj
  Current step  : 1369
  Time step     : 0.005
Per MPI rank memory allocation (min/avg/max) = 18.7 | 29.08 | 52.5 Mbytes
   Step          Temp          PotEng         KinEng         TotEng         Press          Volume           Lx             Ly             Lz      
      1369   1.1841937     -1.1522342      0.56834605    -0.58388818    -1.0114518      724288.47      79.375552      79.375552      114.9577     
WARNING: Lost atoms: original 1622491 current 1622482
For more information see https://docs.lammps.org/err0008 (src/thermo.cpp:532)
      5000   5.4503405e-05 -1.3570226      2.61587e-05   -1.3569964     -1.6436279      724288.47      79.375552      79.375552      114.9577     
      6369   5.2377896e-05 -1.3684897      2.513857e-05  -1.3684646     -1.5802916      724288.47      79.375552      79.375552      114.9577     
Loop time of 72.4895 on 480 procs for 5000 steps with 1622482 atoms

Performance: 29797.434 tau/day, 68.976 timesteps/s, 111.912 Matom-step/s
99.0% CPU use with 480 MPI tasks x 1 OpenMP threads

MPI task timing breakdown:
Section |  min time  |  avg time  |  max time  |%varavg| %total
---------------------------------------------------------------
Pair    | 0.35798    | 2.8271     | 3.9997     |  50.1 |  3.90
Bond    | 0.0033337  | 0.028584   | 0.059443   |   6.9 |  0.04
Neigh   | 44.949     | 46.937     | 48.68      |  14.3 | 64.75
Comm    | 5.0654     | 13.968     | 21.843     | 120.8 | 19.27
Output  | 0.020841   | 0.20462    | 0.38807    |  26.7 |  0.28
Modify  | 3.4001     | 7.4493     | 13.392     | 112.6 | 10.28
Other   |            | 1.075      |            |       |  1.48

Nlocal:        3380.17 ave        7891 max        1403 min
Histogram: 192 24 24 0 96 73 31 28 9 3
Nghost:          19730 ave       42153 max        7614 min
Histogram: 192 0 48 0 0 96 64 56 16 8
Neighs:          46676 ave       65010 max        3655 min
Histogram: 6 13 14 21 49 71 47 43 38 178

Total # of neighbors = 22404499
Ave neighs/atom = 13.808781
Ave special neighs/atom = 0.18118414
Neighbor list builds = 716
Dangerous builds = 145
========================================
Phase 3: Production flow with piston forcing
========================================
  1 rigid bodies with 69948 atoms
Generated 0 of 15 mixed pair_coeff terms from geometric mixing rule
Last active /omp style is bond_style fene/omp
WARNING: More than one fix rigid (src/RIGID/fix_rigid.cpp:712)
WARNING: More than one fix rigid (src/RIGID/fix_rigid.cpp:712)
WARNING: More than one fix rigid (src/RIGID/fix_rigid.cpp:712)
Setting up Verlet run ...
  Unit style    : lj
  Current step  : 6369
  Time step     : 0.005
Per MPI rank memory allocation (min/avg/max) = 17.32 | 27.47 | 50.36 Mbytes
   Step          Temp          PotEng         KinEng         TotEng         Press          Volume           Lx             Ly             Lz      
      6369   5.2378804e-05 -1.3684897      2.513857e-05  -1.3684646     -1.5257875      724288.47      79.375552      79.375552      114.9577     
Loop time of 1.188e-05 on 480 procs for 0 steps with 1622482 atoms

113.2% CPU use with 480 MPI tasks x 1 OpenMP threads

MPI task timing breakdown:
Section |  min time  |  avg time  |  max time  |%varavg| %total
---------------------------------------------------------------
Pair    | 0          | 0          | 0          |   0.0 |  0.00
Bond    | 0          | 0          | 0          |   0.0 |  0.00
Neigh   | 0          | 0          | 0          |   0.0 |  0.00
Comm    | 0          | 0          | 0          |   0.0 |  0.00
Output  | 0          | 0          | 0          |   0.0 |  0.00
Modify  | 0          | 0          | 0          |   0.0 |  0.00
Other   |            | 1.188e-05  |            |       |100.00

Nlocal:        3380.17 ave        7890 max        1404 min
Histogram: 192 24 24 0 96 73 31 28 9 3
Nghost:          19730 ave       42152 max        7615 min
Histogram: 192 0 48 0 0 96 64 56 16 8
Neighs:        46679.3 ave       65026 max        3653 min
Histogram: 6 13 14 21 49 71 47 43 38 178

Total # of neighbors = 22406061
Ave neighs/atom = 13.809744
Ave special neighs/atom = 0.18118414
Neighbor list builds = 0
Dangerous builds = 0
Rg_xx = 384.744539955451
Rg_yy = 380.51472943702
Rg_zz = 677.625819372299
hw_x = 31.7761478259887
hw_y = 31.6009945402754
hw_z = 42.1706201087993
Generated 0 of 15 mixed pair_coeff terms from geometric mixing rule
Last active /omp style is bond_style fene/omp
WARNING: More than one fix rigid (src/RIGID/fix_rigid.cpp:712)
WARNING: More than one fix rigid (src/RIGID/fix_rigid.cpp:712)
WARNING: More than one fix rigid (src/RIGID/fix_rigid.cpp:712)
Setting up Verlet run ...
  Unit style    : lj
  Current step  : 6369
  Time step     : 0.005
Per MPI rank memory allocation (min/avg/max) = 20.33 | 33.23 | 62.37 Mbytes
   Step          Temp          PotEng         KinEng         TotEng         Press          Volume           Lx             Ly             Lz      
      6369   5.2378804e-05 -1.3684897      2.513857e-05  -1.3684646     -1.5257875      724288.47      79.375552      79.375552      114.9577     
     10000   0.90156199    -1.4047393      0.43269371    -0.97204558     1.3663479      724288.47      79.375552      79.375552      114.9577     
     15000   1.0038365     -1.2124319      0.4817791     -0.73065277     0.80507518     724288.47      79.375552      79.375552      114.9577     
     20000   1.0114353     -1.2204387      0.48542607    -0.73501265     1.5151477      724288.47      79.375552      79.375552      114.9577     
     25000   1.0002979     -1.2447517      0.48008079    -0.76467094     1.3083038      724288.47      79.375552      79.375552      114.9577     
     30000   1.0021814     -1.2635611      0.48098477    -0.7825763      1.5849648      724288.47      79.375552      79.375552      114.9577     
     35000   0.99882877    -1.2643565      0.47937572    -0.78498075     1.2556219      724288.47      79.375552      79.375552      114.9577     
     40000   1.000805      -1.2786073      0.4803242     -0.79828307     1.405003       724288.47      79.375552      79.375552      114.9577     
     45000   0.99948343    -1.2782154      0.47968991    -0.79852549     1.4138351      724288.47      79.375552      79.375552      114.9577     
     50000   1.0005476     -1.2851053      0.48020064    -0.80490462     1.2643382      724288.47      79.375552      79.375552      114.9577     
     55000   0.9981063     -1.285335       0.47902898    -0.80630605     1.5385075      724288.47      79.375552      79.375552      114.9577     
     60000   0.99751482    -1.2920044      0.4787451     -0.81325934     1.5140893      724288.47      79.375552      79.375552      114.9577     
     65000   0.99813549    -1.2953605      0.47904299    -0.81631754     1.4385575      724288.47      79.375552      79.375552      114.9577     
     70000   0.99857972    -1.2982518      0.47925619    -0.81899557     1.4479335      724288.47      79.375552      79.375552      114.9577     
     75000   1.0006337     -1.299924       0.48024197    -0.81968203     1.1944137      724288.47      79.375552      79.375552      114.9577     
     80000   1.0001156     -1.3012613      0.47999333    -0.82126794     1.3991444      724288.47      79.375552      79.375552      114.9577     
     85000   1.0013142     -1.3039174      0.48056858    -0.82334877     1.5338353      724288.47      79.375552      79.375552      114.9577     
     90000   0.99994198    -1.3068476      0.47990999    -0.82693757     1.5779075      724288.47      79.375552      79.375552      114.9577     
     95000   0.99906306    -1.3085616      0.47948816    -0.8290734      1.3535868      724288.47      79.375552      79.375552      114.9577     
    100000   0.99942281    -1.3106559      0.47966082    -0.83099504     1.5406722      724288.47      79.375552      79.375552      114.9577     
    105000   0.99945182    -1.3132057      0.47967474    -0.833531       1.2652904      724288.47      79.375552      79.375552      114.9577     
    110000   1.000887      -1.3155031      0.48036354    -0.83513953     1.3390953      724288.47      79.375552      79.375552      114.9577     
    115000   0.99941712    -1.3167777      0.47965809    -0.83711956     1.2812608      724288.47      79.375552      79.375552      114.9577     
    120000   0.99970874    -1.3172875      0.47979805    -0.83748948     1.6255813      724288.47      79.375552      79.375552      114.9577     
    125000   1.0021566     -1.3190866      0.48097288    -0.83811375     1.25326        724288.47      79.375552      79.375552      114.9577     
    130000   1.0013863     -1.3218938      0.48060317    -0.84129067     1.3046047      724288.47      79.375552      79.375552      114.9577     
    135000   1.0001107     -1.3233406      0.47999096    -0.8433496      1.4165425      724288.47      79.375552      79.375552      114.9577     
    140000   1.0001262     -1.325414       0.47999841    -0.84541558     1.4733413      724288.47      79.375552      79.375552      114.9577     
    145000   1.0018584     -1.3285084      0.48082975    -0.84767866     1.3235859      724288.47      79.375552      79.375552      114.9577     
    150000   1.0006058     -1.3274636      0.48022858    -0.84723507     1.4423748      724288.47      79.375552      79.375552      114.9577     
    155000   1.0023912     -1.3278178      0.48108547    -0.84673229     1.606363       724288.47      79.375552      79.375552      114.9577     
    160000   0.99747728    -1.3303269      0.47872709    -0.8515998      1.4163735      724288.47      79.375552      79.375552      114.9577     
    165000   1.0010915     -1.3307262      0.48046167    -0.85026451     1.3301825      724288.47      79.375552      79.375552      114.9577     
    170000   1.0021885     -1.3329133      0.48098819    -0.85192513     1.3891377      724288.47      79.375552      79.375552      114.9577     
    175000   1.00034       -1.333287       0.48010099    -0.85318597     1.424528       724288.47      79.375552      79.375552      114.9577     
    180000   0.99932464    -1.3353005      0.47961371    -0.85568684     1.3953395      724288.47      79.375552      79.375552      114.9577     
    185000   0.99891322    -1.3359648      0.47941625    -0.85654859     1.4746681      724288.47      79.375552      79.375552      114.9577     
    190000   0.99877729    -1.3377028      0.47935101    -0.85835178     1.3222263      724288.47      79.375552      79.375552      114.9577     
    195000   0.99893779    -1.3382841      0.47942804    -0.8588561      1.1998962      724288.47      79.375552      79.375552      114.9577     
    200000   1.0003264     -1.3398199      0.4800945     -0.8597254      1.1928082      724288.47      79.375552      79.375552      114.9577     
    205000   0.99886877    -1.3403422      0.47939491    -0.86094733     1.3531423      724288.47      79.375552      79.375552      114.9577     
    210000   0.99807675    -1.3413779      0.47901479    -0.86236312     1.2714123      724288.47      79.375552      79.375552      114.9577     
    215000   0.99845501    -1.3418086      0.47919633    -0.86261228     1.2453913      724288.47      79.375552      79.375552      114.9577     
    220000   1.000242      -1.341321       0.48005398    -0.86126707     1.5201421      724288.47      79.375552      79.375552      114.9577     
    225000   1.0000793     -1.3417983      0.4799759     -0.86182237     1.4660049      724288.47      79.375552      79.375552      114.9577     
    230000   0.99935118    -1.3419933      0.47962645    -0.86236685     1.2629943      724288.47      79.375552      79.375552      114.9577     
    235000   1.0002301     -1.3446502      0.48004826    -0.86460196     1.421461       724288.47      79.375552      79.375552      114.9577     
    240000   0.99977999    -1.3452965      0.47983224    -0.86546424     1.5285959      724288.47      79.375552      79.375552      114.9577     
    245000   0.99873724    -1.3458663      0.47933179    -0.86653449     1.2507084      724288.47      79.375552      79.375552      114.9577     
    250000   0.99914162    -1.3467472      0.47952587    -0.86722129     1.4697964      724288.47      79.375552      79.375552      114.9577     
    255000   1.0007337     -1.3467892      0.48028998    -0.86649921     1.3941882      724288.47      79.375552      79.375552      114.9577     
    260000   1.0013809     -1.3464621      0.48060057    -0.86586155     1.6102232      724288.47      79.375552      79.375552      114.9577     
    265000   1.000707      -1.3465001      0.48027715    -0.8662229      1.305888       724288.47      79.375552      79.375552      114.9577     
    270000   0.99939081    -1.3471637      0.47964546    -0.86751819     1.4309231      724288.47      79.375552      79.375552      114.9577     
    275000   1.0001782     -1.3494952      0.48002335    -0.86947184     1.3363504      724288.47      79.375552      79.375552      114.9577     
    280000   0.99956128    -1.3494706      0.47972728    -0.86974333     1.3140583      724288.47      79.375552      79.375552      114.9577     
    285000   0.99944537    -1.3502327      0.47967165    -0.87056102     1.3765798      724288.47      79.375552      79.375552      114.9577     
    290000   1.0013343     -1.3516725      0.48057819    -0.87109427     1.3904616      724288.47      79.375552      79.375552      114.9577     
    295000   0.99904117    -1.3509516      0.47947766    -0.87147392     1.1911174      724288.47      79.375552      79.375552      114.9577     
    300000   0.99885763    -1.3509978      0.47938957    -0.87160826     1.5083873      724288.47      79.375552      79.375552      114.9577     
    305000   1.0025534     -1.3503832      0.4811633     -0.86921991     1.4568003      724288.47      79.375552      79.375552      114.9577     
    310000   1.0012874     -1.3513475      0.48055568    -0.87079186     1.3034683      724288.47      79.375552      79.375552      114.9577     
    315000   1.0000093     -1.3528931      0.47994228    -0.87295079     1.1099044      724288.47      79.375552      79.375552      114.9577     
    320000   1.0006983     -1.3525528      0.48027298    -0.87227978     1.2345345      724288.47      79.375552      79.375552      114.9577     
    325000   0.99904049    -1.351428       0.47947733    -0.8719507      1.4398816      724288.47      79.375552      79.375552      114.9577     
    330000   0.9989277     -1.3519884      0.4794232     -0.87256524     1.3944713      724288.47      79.375552      79.375552      114.9577     
    335000   1.0003571     -1.3517442      0.4801092     -0.87163495     1.5589302      724288.47      79.375552      79.375552      114.9577     
    340000   0.99822136    -1.3542279      0.4790842     -0.87514367     1.5117803      724288.47      79.375552      79.375552      114.9577     
    345000   0.99979688    -1.3531027      0.47984035    -0.87326235     1.3674779      724288.47      79.375552      79.375552      114.9577     
    350000   1.0000961     -1.3531319      0.47998395    -0.87314799     1.3558179      724288.47      79.375552      79.375552      114.9577     
    355000   0.99930622    -1.353513       0.47960487    -0.87390812     1.2379679      724288.47      79.375552      79.375552      114.9577     
    360000   1.0000879     -1.3542381      0.47998002    -0.87425805     1.6525568      724288.47      79.375552      79.375552      114.9577     
    365000   1.0018091     -1.3549344      0.48080608    -0.87412836     1.3818831      724288.47      79.375552      79.375552      114.9577     
    370000   0.99893604    -1.3533552      0.4794272     -0.87392801     1.3903744      724288.47      79.375552      79.375552      114.9577     
    375000   0.9991402     -1.3529496      0.47952519    -0.87342442     1.2626237      724288.47      79.375552      79.375552      114.9577     
    380000   1.0004153     -1.3556476      0.48013716    -0.87551041     1.3610088      724288.47      79.375552      79.375552      114.9577     
    385000   1.0018253     -1.3533469      0.48081387    -0.87253299     1.5203748      724288.47      79.375552      79.375552      114.9577     
    390000   0.99907927    -1.3553905      0.47949594    -0.8758946      1.4758888      724288.47      79.375552      79.375552      114.9577     
    395000   0.99916384    -1.3538475      0.47953653    -0.87431093     1.5908317      724288.47      79.375552      79.375552      114.9577     
    400000   0.99919632    -1.35413        0.47955212    -0.87457785     1.5089613      724288.47      79.375552      79.375552      114.9577     
    405000   1.0001314     -1.3534494      0.48000091    -0.87344853     1.1763036      724288.47      79.375552      79.375552      114.9577     
    410000   1.0005316     -1.355838       0.48019297    -0.87564506     1.2786158      724288.47      79.375552      79.375552      114.9577     
    415000   0.99666948    -1.3544806      0.4783394     -0.87614118     1.3905366      724288.47      79.375552      79.375552      114.9577     
    420000   1.0007699     -1.3553872      0.48030734    -0.87507983     1.4588903      724288.47      79.375552      79.375552      114.9577     
    425000   0.99914277    -1.3555302      0.47952642    -0.87600376     1.3703845      724288.47      79.375552      79.375552      114.9577     
    430000   0.99961814    -1.3561843      0.47975457    -0.87642974     1.2615617      724288.47      79.375552      79.375552      114.9577     
    435000   0.99924941    -1.3550255      0.4795776     -0.87544791     1.3754217      724288.47      79.375552      79.375552      114.9577     
    440000   1.0012713     -1.3542494      0.48054798    -0.87370138     1.3284174      724288.47      79.375552      79.375552      114.9577     
    445000   1.001288      -1.3554315      0.480556      -0.87487554     1.4313652      724288.47      79.375552      79.375552      114.9577     
    450000   0.9985926     -1.3546916      0.47926237    -0.87542918     1.5679371      724288.47      79.375552      79.375552      114.9577     
    455000   0.99964164    -1.354133       0.47976584    -0.87436716     1.5712961      724288.47      79.375552      79.375552      114.9577     
    460000   1.0011916     -1.3566951      0.48050975    -0.87618533     1.1905303      724288.47      79.375552      79.375552      114.9577     
    465000   0.99918602    -1.3540254      0.47954718    -0.87447824     1.2211618      724288.47      79.375552      79.375552      114.9577     
    470000   1.0004518     -1.3573274      0.48015468    -0.87717272     1.3313066      724288.47      79.375552      79.375552      114.9577     
    475000   0.99966628    -1.3570129      0.47977767    -0.87723521     1.2863462      724288.47      79.375552      79.375552      114.9577     
    480000   1.0025801     -1.3549868      0.48117613    -0.87381067     1.3856421      724288.47      79.375552      79.375552      114.9577     
    485000   1.0018352     -1.3556618      0.48081863    -0.87484317     1.1742317      724288.47      79.375552      79.375552      114.9577     
    490000   0.99962354    -1.3551815      0.47975716    -0.87542438     1.461883       724288.47      79.375552      79.375552      114.9577     
    495000   1.0011995     -1.3550702      0.48051352    -0.87455668     1.2876705      724288.47      79.375552      79.375552      114.9577     
    500000   0.99870273    -1.356565       0.47931522    -0.87724977     1.2927595      724288.47      79.375552      79.375552      114.9577     
    505000   0.99893413    -1.3570935      0.47942629    -0.87766724     1.4663078      724288.47      79.375552      79.375552      114.9577     
    506369   0.99870578    -1.3573529      0.47931669    -0.87803618     1.1253893      724288.47      79.375552      79.375552      114.9577     
Loop time of 8129.01 on 480 procs for 500000 steps with 1622482 atoms

Performance: 26571.502 tau/day, 61.508 timesteps/s, 99.796 Matom-step/s
99.1% CPU use with 480 MPI tasks x 1 OpenMP threads

MPI task timing breakdown:
Section |  min time  |  avg time  |  max time  |%varavg| %total
---------------------------------------------------------------
Pair    | 22.343     | 342.58     | 491.69     | 767.8 |  4.21
Bond    | 0.48529    | 3.8064     | 9.365      |  97.7 |  0.05
Neigh   | 4942.8     | 5177.2     | 5370.2     | 164.9 | 63.69
Comm    | 544.16     | 1490.7     | 2462.5     |1256.3 | 18.34
Output  | 0.18729    | 0.76866    | 1.2867     |  37.8 |  0.01
Modify  | 516.7      | 1013.9     | 1683.7     |1028.3 | 12.47
Other   |            | 100.2      |            |       |  1.23

Nlocal:        3380.17 ave        8262 max         691 min
Histogram: 26 190 6 26 52 72 76 19 10 3
Nghost:        19732.2 ave       39235 max        6261 min
Histogram: 172 68 0 0 0 0 99 89 39 13
Neighs:        53796.3 ave       78816 max         474 min
Histogram: 52 16 3 5 19 34 81 36 69 165

Total # of neighbors = 25822218
Ave neighs/atom = 15.915257
Ave special neighs/atom = 0.18118414
Neighbor list builds = 85371
Dangerous builds = 0
========================================
Flow simulation complete
========================================
System init for write_data ...
Generated 0 of 15 mixed pair_coeff terms from geometric mixing rule
Last active /omp style is bond_style fene/omp
WARNING: More than one fix rigid (src/RIGID/fix_rigid.cpp:712)
WARNING: More than one fix rigid (src/RIGID/fix_rigid.cpp:712)
WARNING: More than one fix rigid (src/RIGID/fix_rigid.cpp:712)
WARNING: Not all mixed pair coeffs generated from mixing. Use write_data with 'pair ij' option to store all pair coeffs. (src/write_data.cpp:364)
Total wall time: 2:17:42
======================================
Running post-processing...
======================================
Generating convergence plot...
Plot saved to ./output_plots/convergence_plots/walled_slab_support_5beads_tall_3_1.5_1.4_20000000_1.5_1.4_500000_convergence.png
Generating stress profiles...
Warning: Could not find data file (tried walled_slab_support_5beads_tall_3.data and walled_slab_support_5beads_tall_3_1.5_1.4_20000000_1.5_1.4_500000.data), using default box dimensions
Stress profile saved to ./output_plots/walled_slab_support_5beads_tall_3_1.5_1.4_20000000_1.5_1.4_500000_stress.png
No volume data found for walled_slab_support_5beads_tall_3_1.5_1.4_20000000_1.5_1.4_500000, skipping volume fraction plots
Generating piston plots...
Read 25 position points, 25 velocity points
Piston plot saved to ./output_plots/walled_slab_support_5beads_tall_3_1.5_1.4_20000000_1.5_1.4_500000_piston.png

=== Piston Summary ===
Initial position: 89.4988
Final position:   85.3074
Total displacement: -4.1914
Steady-state velocity: -1.04e-03 ± 4.49e-03
Generating computational efficiency plot...
Found data file: ./data_files/walled_slab_support_5beads_tall_3_1.5_1.4_20000000.data
Mobile atoms: 1482595
Tracking info written to /jet/home/dpollard/Documents/lammps_work/tracking.txt
Saved /jet/home/dpollard/Documents/lammps_work/time_vs_atoms.png
Saved /jet/home/dpollard/Documents/lammps_work/time_vs_timesteps.png
======================================
Done! Results are in: /jet/home/dpollard/Documents/lammps_runs/slab_with_flow_walled_slab_support_5beads_tall_3_1.5_1.4_20000000_1.5_1.4_20260120_215004
======================================
