======================================
Working directory: /jet/home/dpollard/Documents/lammps_runs/slab_with_flow_walled_slab_support_5beads_tall_4_1.0_1.05_15000000_1.0_1.05_20260216_021541
Trajectory directory (scratch): /ocean/projects/chm250028p/dpollard/lammps_trajectories/slab_with_flow_walled_slab_support_5beads_tall_4_1.0_1.05_15000000_1.0_1.05_20260216_021541
======================================
Running LAMMPS in slab_with_flow with:
  dataname=walled_slab_support_5beads_tall_4_1.0_1.05_15000000
  epsSS=1.0, epsSP=1.05
  nsteps=50000, oldsteps=0, totsteps=50000
SLURM tasks per node: 120
SLURM CPUs per task: 1
SLURM_GPUS_ON_NODE: 
GPUs allocated: 
Running CPU-only with 600 tasks
LAMMPS (22 Jul 2025)
  using 1 OpenMP thread(s) per MPI task
using multi-threaded neighbor list subroutines
>>> Stress: nevery=100 nrepeat=50 nfreq=5000
>>> Mode: compression_mode=1  (0=permeation, 1=compression)
Reading data file ...
  orthogonal box = (-5.6347822 -5.6347822 -9.6815804) to (71.634782 71.634782 123.08158)
  5 by 8 by 15 MPI processor grid
  reading atoms ...
  1278442 atoms
  scanning bonds ...
  3 = max bonds/atom
  orthogonal box = (-5.6347822 -5.6347822 -9.6815804) to (71.634782 71.634782 123.08158)
  5 by 8 by 15 MPI processor grid
  reading bonds ...
  114808 bonds
Finding 1-2 1-3 1-4 neighbors ...
  special bond factors lj:    0        0        0       
  special bond factors coul:  0        0        0       
     4 = max # of 1-2 neighbors
     4 = max # of 1-3 neighbors
     8 = max # of 1-4 neighbors
    12 = max # of special neighbors
  special bonds CPU = 0.149 seconds
  read_data CPU = 3.757 seconds
========================================
Flow/Compression simulation: walled_slab_support_5beads_tall_4_1.0_1.05_15000000
Interaction: epsSS=1.0, epsSP=1.05
Production steps: 50000
WARNING: Detected non-ASCII characters in input. Will try to continue by replacing with ASCII equivalents where known. (src/input.cpp:478)
Piston force: -0.05 †’ -0.2 (ramp)
========================================
101482 atoms in group polymer
197612 atoms in group solvent
63221 atoms in group support
63221 atoms in group piston
852906 atoms in group walls
299094 atoms in group mobile
425536 atoms in group gel_system
Finding 1-2 1-3 1-4 neighbors ...
  special bond factors lj:    0        1        1       
  special bond factors coul:  0        1        1       
     4 = max # of 1-2 neighbors
    12 = max # of special neighbors
  special bonds CPU = 0.052 seconds
  1 rigid bodies with 63221 atoms
  1 rigid bodies with 63221 atoms
  1 rigid bodies with 852906 atoms
========================================
Phase 1: Soft push to resolve overlaps
========================================
Generated 0 of 15 mixed pair_coeff terms from geometric mixing rule
Hybrid pair style last /omp style soft
Last active /omp style is bond_style fene/omp
WARNING: More than one fix rigid (src/RIGID/fix_rigid.cpp:712)
WARNING: More than one fix rigid (src/RIGID/fix_rigid.cpp:712)
WARNING: More than one fix rigid (src/RIGID/fix_rigid.cpp:712)
Neighbor list info ...
  update: every = 1 steps, delay = 0 steps, check = yes
  max neighbors/atom: 2000, page size: 100000
  master list distance cutoff = 2.8
  ghost atom cutoff = 5
  binsize = 1.4, bins = 56 56 95
  2 neighbor lists, perpetual/occasional/extra = 2 0 0
  (1) pair lj/cut, perpetual
      attributes: half, newton on, omp, cut 2.8
      pair build: half/bin/newton/omp
      stencil: half/bin/3d
      bin: standard
  (2) pair soft, perpetual, skip from (1)
      attributes: half, newton on, omp
      pair build: skip/omp
      stencil: none
      bin: none
Setting up Verlet run ...
  Unit style    : lj
  Current step  : 0
  Time step     : 0.005
Per MPI rank memory allocation (min/avg/max) = 16.56 | 20.82 | 38.92 Mbytes
   Step     c_mobile_temp      PotEng         KinEng         TotEng         Press          Volume           Lx             Ly             Lz      
         0   0              0.50526228     0              0.50526228     0.083476512    792673.82      77.269564      77.269564      132.76316    
      1000   0.82867149     0.32978848     0.290803       0.62059147     0.60544026     792673.82      77.269564      77.269564      132.76316    
Loop time of 24.541 on 600 procs for 1000 steps with 1278442 atoms

Performance: 17603.169 tau/day, 40.748 timesteps/s, 52.094 Matom-step/s
99.3% CPU use with 600 MPI tasks x 1 OpenMP threads

MPI task timing breakdown:
Section |  min time  |  avg time  |  max time  |%varavg| %total
---------------------------------------------------------------
Pair    | 0.024866   | 0.55923    | 1.3868     |  51.4 |  2.28
Bond    | 0.0010196  | 0.01225    | 0.048899   |  10.9 |  0.05
Neigh   | 19.079     | 19.648     | 20.091     |   5.0 | 80.06
Comm    | 0.83645    | 2.1371     | 3.8595     |  42.3 |  8.71
Output  | 0.0038438  | 0.020927   | 0.03535    |   6.7 |  0.09
Modify  | 1.0821     | 1.9267     | 3.2586     |  44.6 |  7.85
Other   |            | 0.237      |            |       |  0.97

Nlocal:        2130.74 ave        6212 max           0 min
Histogram: 130 119 57 24 116 27 29 80 6 12
Nghost:        12714.6 ave       28821 max        6042 min
Histogram: 143 106 63 122 82 37 23 16 4 4
Neighs:        27727.4 ave       84527 max           0 min
Histogram: 154 67 78 43 43 106 87 16 4 2

Total # of neighbors = 16636461
Ave neighs/atom = 13.013075
Ave special neighs/atom = 0.17960611
Neighbor list builds = 405
Dangerous builds = 0
Generated 0 of 15 mixed pair_coeff terms from geometric mixing rule
Hybrid pair style last /omp style soft
Last active /omp style is bond_style fene/omp
WARNING: More than one fix rigid (src/RIGID/fix_rigid.cpp:712)
WARNING: More than one fix rigid (src/RIGID/fix_rigid.cpp:712)
WARNING: More than one fix rigid (src/RIGID/fix_rigid.cpp:712)
Setting up cg style minimization ...
  Unit style    : lj
  Current step  : 1000
Per MPI rank memory allocation (min/avg/max) = 18.15 | 23.62 | 44.18 Mbytes
   Step     c_mobile_temp      PotEng         KinEng         TotEng         Press          Volume           Lx             Ly             Lz      
      1000   0.82867149     0.32978848     0.290803       0.62059147     0.60544026     792673.82      77.269564      77.269564      132.76316    
      1990   0.82867149    -0.065386532    0.290803       0.22541646     0.057421013    792673.82      77.269564      77.269564      132.76316    
Loop time of 22.2082 on 600 procs for 990 steps with 1278442 atoms

99.4% CPU use with 600 MPI tasks x 1 OpenMP threads

Minimization stats:
  Stopping criterion = energy tolerance
  Energy initial, next-to-last, final = 
     0.329788475041832 -0.0653810619884997 -0.0653865320141907
  Force two-norm initial, final = 18519.214 97.099458
  Force max component initial, final = 331.87208 13.776828
  Final line search alpha, max atom move = 0.0036357801 0.050089519
  Iterations, force evaluations = 990 1336

MPI task timing breakdown:
Section |  min time  |  avg time  |  max time  |%varavg| %total
---------------------------------------------------------------
Pair    | 0.0032771  | 0.63276    | 2.3458     |  80.5 |  2.85
Bond    | 0.0010187  | 0.012441   | 0.044718   |  13.5 |  0.06
Neigh   | 16.239     | 16.722     | 17.096     |   4.6 | 75.30
Comm    | 0.9449     | 2.6513     | 4.5625     |  53.7 | 11.94
Output  | 0          | 0          | 0          |   0.0 |  0.00
Modify  | 0.011263   | 0.039857   | 0.1394     |  11.9 |  0.18
Other   |            | 2.15       |            |       |  9.68

Nlocal:        2130.74 ave        6157 max           0 min
Histogram: 130 1 175 24 116 27 30 79 6 12
Nghost:        12673.3 ave       28525 max        6067 min
Histogram: 153 96 63 133 50 56 25 15 5 4
Neighs:        22406.9 ave       73104 max           0 min
Histogram: 309 23 27 41 28 7 6 29 129 1

Total # of neighbors = 13444146
Ave neighs/atom = 10.516039
Ave special neighs/atom = 0.17960611
Neighbor list builds = 363
Dangerous builds = 9
Soft push complete
========================================
Phase 2: Switching to full LJ interactions
========================================
Generated 0 of 15 mixed pair_coeff terms from geometric mixing rule
Last active /omp style is bond_style fene/omp
WARNING: More than one fix rigid (src/RIGID/fix_rigid.cpp:712)
WARNING: More than one fix rigid (src/RIGID/fix_rigid.cpp:712)
WARNING: More than one fix rigid (src/RIGID/fix_rigid.cpp:712)
Neighbor list info ...
  update: every = 1 steps, delay = 0 steps, check = yes
  max neighbors/atom: 2000, page size: 100000
  master list distance cutoff = 2.8
  ghost atom cutoff = 5
  binsize = 1.4, bins = 56 56 95
  1 neighbor lists, perpetual/occasional/extra = 1 0 0
  (1) pair lj/cut/omp, perpetual
      attributes: half, newton on, omp
      pair build: half/bin/newton/omp
      stencil: half/bin/3d
      bin: standard
Setting up cg style minimization ...
  Unit style    : lj
  Current step  : 1990
Per MPI rank memory allocation (min/avg/max) = 17.52 | 23.02 | 43.29 Mbytes
   Step     c_mobile_temp      PotEng         KinEng         TotEng         Press          Volume           Lx             Ly             Lz      
      1990   0.82867149    -0.065495593    0.290803       0.2253074      0.057435223    792673.82      77.269564      77.269564      132.76316    
      1991   0.82867149    -0.065495991    0.290803       0.225307       0.057470631    792673.82      77.269564      77.269564      132.76316    
Loop time of 0.0412967 on 600 procs for 1 steps with 1278442 atoms

99.3% CPU use with 600 MPI tasks x 1 OpenMP threads

Minimization stats:
  Stopping criterion = energy tolerance
  Energy initial, next-to-last, final = 
    -0.0654955930674256 -0.0654955930674256 -0.0654959914290381
  Force two-norm initial, final = 152.85519 133.35479
  Force max component initial, final = 80.431331 37.001397
  Final line search alpha, max atom move = 0.0012432966 0.04600371
  Iterations, force evaluations = 1 2

MPI task timing breakdown:
Section |  min time  |  avg time  |  max time  |%varavg| %total
---------------------------------------------------------------
Pair    | 2.2902e-05 | 0.0014711  | 0.005426   |   4.2 |  3.56
Bond    | 2.366e-06  | 2.851e-05  | 0.00011464 |   0.0 |  0.07
Neigh   | 0          | 0          | 0          |   0.0 |  0.00
Comm    | 0.0014336  | 0.0048204  | 0.0087423  |   2.8 | 11.67
Output  | 0          | 0          | 0          |   0.0 |  0.00
Modify  | 1.6e-05    | 7.0775e-05 | 0.00029308 |   0.0 |  0.17
Other   |            | 0.03491    |            |       | 84.52

Nlocal:        2130.74 ave        6157 max           0 min
Histogram: 130 1 175 24 116 27 30 79 6 12
Nghost:        12673.2 ave       28525 max        6067 min
Histogram: 152 97 63 133 50 56 25 15 5 4
Neighs:        21454.7 ave       64744 max           0 min
Histogram: 307 26 25 40 34 11 1 1 26 129

Total # of neighbors = 12872795
Ave neighs/atom = 10.069127
Ave special neighs/atom = 0.17960611
Neighbor list builds = 0
Dangerous builds = 0
Generated 0 of 15 mixed pair_coeff terms from geometric mixing rule
Last active /omp style is bond_style fene/omp
WARNING: More than one fix rigid (src/RIGID/fix_rigid.cpp:712)
WARNING: More than one fix rigid (src/RIGID/fix_rigid.cpp:712)
WARNING: More than one fix rigid (src/RIGID/fix_rigid.cpp:712)
Setting up Verlet run ...
  Unit style    : lj
  Current step  : 1991
  Time step     : 0.005
Per MPI rank memory allocation (min/avg/max) = 16.39 | 21.49 | 39.92 Mbytes
   Step     c_mobile_temp      PotEng         KinEng         TotEng         Press          Volume           Lx             Ly             Lz      
      1991   0.82867149    -0.065495991    0.290803       0.225307       0.07137953     792673.82      77.269564      77.269564      132.76316    
WARNING: Lost atoms: original 1278442 current 1278441
For more information see https://docs.lammps.org/err0008 (src/thermo.cpp:532)
      6991   9.349584e-05  -0.017398034    3.2810217e-05 -0.017365223   -1.1664137      792673.82      77.269564      77.269564      132.76316    
Loop time of 65.6494 on 600 procs for 5000 steps with 1278441 atoms

Performance: 32902.050 tau/day, 76.162 timesteps/s, 97.369 Matom-step/s
99.4% CPU use with 600 MPI tasks x 1 OpenMP threads

MPI task timing breakdown:
Section |  min time  |  avg time  |  max time  |%varavg| %total
---------------------------------------------------------------
Pair    | 0.0039174  | 1.1684     | 3.359      | 113.4 |  1.78
Bond    | 0.0031249  | 0.017231   | 0.057219   |  13.2 |  0.03
Neigh   | 48.221     | 49.758     | 50.941     |   8.6 | 75.79
Comm    | 3.3685     | 8.3984     | 13.46      |  87.8 | 12.79
Output  | 0.020094   | 0.16906    | 0.24488    |  14.8 |  0.26
Modify  | 2.3328     | 5.4695     | 10.376     |  98.2 |  8.33
Other   |            | 0.6693     |            |       |  1.02

Nlocal:        2130.74 ave        6203 max           0 min
Histogram: 130 56 120 16 124 27 29 81 5 12
Nghost:          12702 ave       28860 max        6084 min
Histogram: 152 91 69 133 71 38 22 16 4 4
Neighs:        19873.3 ave       55816 max           0 min
Histogram: 266 58 14 21 37 34 13 5 41 111

Total # of neighbors = 11923975
Ave neighs/atom = 9.3269654
Ave special neighs/atom = 0.17960625
Neighbor list builds = 1094
Dangerous builds = 243
========================================
Phase 3a: Thermalizing before initial capture
========================================
Generated 0 of 15 mixed pair_coeff terms from geometric mixing rule
Last active /omp style is bond_style fene/omp
WARNING: More than one fix rigid (src/RIGID/fix_rigid.cpp:712)
WARNING: More than one fix rigid (src/RIGID/fix_rigid.cpp:712)
WARNING: More than one fix rigid (src/RIGID/fix_rigid.cpp:712)
Setting up Verlet run ...
  Unit style    : lj
  Current step  : 6991
  Time step     : 0.005
Per MPI rank memory allocation (min/avg/max) = 15.93 | 20.26 | 38.05 Mbytes
   Step     c_mobile_temp      PotEng         KinEng         TotEng         Press          Volume           Lx             Ly             Lz      
      6991   9.3496152e-05 -0.017398034    3.2810217e-05 -0.017365223   -1.1664056      792673.82      77.269564      77.269564      132.76316    
Loop time of 1.32496e-05 on 600 procs for 0 steps with 1278441 atoms

111.4% CPU use with 600 MPI tasks x 1 OpenMP threads

MPI task timing breakdown:
Section |  min time  |  avg time  |  max time  |%varavg| %total
---------------------------------------------------------------
Pair    | 0          | 0          | 0          |   0.0 |  0.00
Bond    | 0          | 0          | 0          |   0.0 |  0.00
Neigh   | 0          | 0          | 0          |   0.0 |  0.00
Comm    | 0          | 0          | 0          |   0.0 |  0.00
Output  | 0          | 0          | 0          |   0.0 |  0.00
Modify  | 0          | 0          | 0          |   0.0 |  0.00
Other   |            | 1.325e-05  |            |       |100.00

Nlocal:        2130.74 ave        6202 max           0 min
Histogram: 130 54 122 16 124 27 29 81 5 12
Nghost:        12701.9 ave       28860 max        6080 min
Histogram: 152 90 70 133 71 38 22 16 4 4
Neighs:        19889.1 ave       55963 max           0 min
Histogram: 266 58 14 22 37 33 13 6 43 108

Total # of neighbors = 11933462
Ave neighs/atom = 9.3343862
Ave special neighs/atom = 0.17960625
Neighbor list builds = 0
Dangerous builds = 0
>>> Pre-thermalization T = 9.3496152269630011041e-05
Generated 0 of 15 mixed pair_coeff terms from geometric mixing rule
Last active /omp style is bond_style fene/omp
WARNING: More than one fix rigid (src/RIGID/fix_rigid.cpp:712)
WARNING: More than one fix rigid (src/RIGID/fix_rigid.cpp:712)
WARNING: More than one fix rigid (src/RIGID/fix_rigid.cpp:712)
Setting up Verlet run ...
  Unit style    : lj
  Current step  : 6991
  Time step     : 0.005
Per MPI rank memory allocation (min/avg/max) = 15.93 | 20.26 | 38.05 Mbytes
   Step     c_mobile_temp      PotEng         KinEng         TotEng         Press          Volume           Lx             Ly             Lz      
      6991   9.3496152e-05 -0.017398034    3.2810217e-05 -0.017365223   -1.1664056      792673.82      77.269564      77.269564      132.76316    
     10000   0.33476558     0.029666827    0.1174779      0.14714472     0.13445068     792673.82      77.269564      77.269564      132.76316    
     20000   1.0024918      0.18263177     0.35180029     0.53443206     0.012430853    792673.82      77.269564      77.269564      132.76316    
     26991   0.99962049     0.18787183     0.35079267     0.5386645      0.038639895    792673.82      77.269564      77.269564      132.76316    
Loop time of 233.202 on 600 procs for 20000 steps with 1278441 atoms

Performance: 37049.415 tau/day, 85.763 timesteps/s, 109.642 Matom-step/s
99.4% CPU use with 600 MPI tasks x 1 OpenMP threads

MPI task timing breakdown:
Section |  min time  |  avg time  |  max time  |%varavg| %total
---------------------------------------------------------------
Pair    | 0.014473   | 4.849      | 12.378     | 185.8 |  2.08
Bond    | 0.012346   | 0.068865   | 0.2208     |  24.6 |  0.03
Neigh   | 165.55     | 170        | 173.15     |  13.9 | 72.90
Comm    | 12.471     | 31.339     | 50.171     | 166.2 | 13.44
Output  | 0.00042888 | 0.0033871  | 0.009268   |   5.3 |  0.00
Modify  | 11.272     | 24.363     | 44.272     | 184.1 | 10.45
Other   |            | 2.577      |            |       |  1.11

Nlocal:        2130.74 ave        6437 max           0 min
Histogram: 130 156 20 21 120 26 29 82 4 12
Nghost:        12743.7 ave       29711 max        5295 min
Histogram: 130 37 145 98 106 35 21 14 10 4
Neighs:        19258.7 ave       44298 max           0 min
Histogram: 150 15 106 58 1 27 57 38 89 59

Total # of neighbors = 11555214
Ave neighs/atom = 9.0385196
Ave special neighs/atom = 0.17960625
Neighbor list builds = 3412
Dangerous builds = 0
>>> Post-thermalization T = 0.99962048974642558896
Rg_xx = 228.593321074801  †’  Lx_rg = 52.374801697931097522
Rg_yy = 223.050010504544  †’  Ly_rg = 51.735868853770398346
Rg_zz = 765.055646315931  †’  Lz_rg = 95.815801180134997139
BB:  Lx=54.440659520814300265 Ly=52.654589347296798962 Lz=104.60524586385000134
hw_x = 27.2147452731485
hw_y = 26.8827460285352
hw_z = 49.7873507435736
>>> Initial gel thickness (Rg): L0 = 95.815801180135
>>> Initial gel thickness (BB): L0 = 104.60524586385000134
========================================
Phase 3b: Production €” piston forcing
========================================
  1 rigid bodies with 63221 atoms
WARNING: Temperature for fix modify is not for group all (src/fix_nh.cpp:1402)
>>> Starting Phase 3 production run (nsteps = 50000)
>>> compression_mode = 1
Generated 0 of 15 mixed pair_coeff terms from geometric mixing rule
Last active /omp style is bond_style fene/omp
WARNING: More than one fix rigid (src/RIGID/fix_rigid.cpp:712)
WARNING: More than one fix rigid (src/RIGID/fix_rigid.cpp:712)
WARNING: More than one fix rigid (src/RIGID/fix_rigid.cpp:712)
Setting up Verlet run ...
  Unit style    : lj
  Current step  : 26991
  Time step     : 0.005
Per MPI rank memory allocation (min/avg/max) = 18.95 | 24.54 | 47.09 Mbytes
   Step     c_mobile_temp      PotEng         KinEng         TotEng         Press          Volume           Lx             Ly             Lz      
     26991   0.99962049     0.18787183     0.35079267     0.5386645      0.04109008     792673.82      77.269564      77.269564      132.76316    
>>> gel_strain = -2.0205060011172601975 %
     30000   0.99915082     0.19075292     0.36501985     0.55577277     0.10229356     792673.82      77.269564      77.269564      132.76316    
>>> gel_strain = 13.947685370633900348 %
     40000   1.0479769      0.042156358    0.37580167     0.41795803     0.40167667     792673.82      77.269564      77.269564      132.76316    
>>> gel_strain = 12.352205311885899874 %
     50000   1.007373       0.06111498     0.35363695     0.41475192     0.47400658     792673.82      77.269564      77.269564      132.76316    
>>> gel_strain = 14.721633444746800023 %
     60000   1.0032402      0.031214044    0.35209774     0.38331178     0.23782223     792673.82      77.269564      77.269564      132.76316    
>>> gel_strain = 16.329218660535499197 %
     70000   1.0024377      0.0026912      0.35186474     0.35455594     0.30244109     792673.82      77.269564      77.269564      132.76316    
     76991   1.0012743     -0.0035042088   0.35138123     0.34787702     0.31879675     792673.82      77.269564      77.269564      132.76316    
Loop time of 685.937 on 600 procs for 50000 steps with 1278441 atoms

Performance: 31489.765 tau/day, 72.893 timesteps/s, 93.189 Matom-step/s
99.3% CPU use with 600 MPI tasks x 1 OpenMP threads

MPI task timing breakdown:
Section |  min time  |  avg time  |  max time  |%varavg| %total
---------------------------------------------------------------
Pair    | 3.0031     | 47.722     | 125.09     | 457.7 |  6.96
Bond    | 0.88343    | 7.2054     | 30.632     | 166.0 |  1.05
Neigh   | 331.61     | 342.8      | 352.04     |  25.6 | 49.98
Comm    | 37.631     | 115.73     | 238.97     | 436.0 | 16.87
Output  | 0.080632   | 0.17727    | 0.2938     |  17.1 |  0.03
Modify  | 66.236     | 153.01     | 265.15     | 451.0 | 22.31
Other   |            | 19.29      |            |       |  2.81

Nlocal:        2130.74 ave        6660 max           0 min
Histogram: 149 137 20 32 109 32 53 54 2 12
Nghost:        12753.4 ave       25935 max        3092 min
Histogram: 10 50 101 147 73 102 66 30 16 5
Neighs:        21728.1 ave       56135 max           0 min
Histogram: 186 37 48 82 72 14 7 15 19 120

Total # of neighbors = 13036854
Ave neighs/atom = 10.197462
Ave special neighs/atom = 0.17960625
Neighbor list builds = 8470
Dangerous builds = 0
>>> 10% compression reached (or nsteps exhausted)
>>> Freezing piston and starting stress relaxation
  1 rigid bodies with 63221 atoms
Generated 0 of 15 mixed pair_coeff terms from geometric mixing rule
Last active /omp style is bond_style fene/omp
WARNING: More than one fix rigid (src/RIGID/fix_rigid.cpp:712)
WARNING: More than one fix rigid (src/RIGID/fix_rigid.cpp:712)
WARNING: More than one fix rigid (src/RIGID/fix_rigid.cpp:712)
Setting up Verlet run ...
  Unit style    : lj
  Current step  : 76991
  Time step     : 0.005
Per MPI rank memory allocation (min/avg/max) = 21.76 | 32.08 | 55.97 Mbytes
   Step     c_mobile_temp      PotEng         KinEng         TotEng         Press          Volume           Lx             Ly             Lz      
     76991   1.0012743     -0.0035042088   0.35137305     0.34786884     0.040019747    792673.82      77.269564      77.269564      132.76316    
>>> gel_strain = 17.098638848549299496 %
     80000   1.0025315     -0.0024710569   0.35181421     0.34934315     0.058543078    792673.82      77.269564      77.269564      132.76316    
>>> gel_strain = 16.946027374716400971 %
     90000   1.0023029      0.0081748439   0.35173399     0.35990883    -0.13853187     792673.82      77.269564      77.269564      132.76316    
>>> gel_strain = 16.789550649562400508 %
    100000   1.0004479      0.015736707    0.35108303     0.36681974    -0.046750825    792673.82      77.269564      77.269564      132.76316    
>>> gel_strain = 16.67411103206610079 %
    110000   0.99830658     0.025187693    0.35033159     0.37551928     0.015471796    792673.82      77.269564      77.269564      132.76316    
>>> gel_strain = 16.499903892003398909 %
    120000   1.0025649      0.033055781    0.35182594     0.38488172     0.024939297    792673.82      77.269564      77.269564      132.76316    
    126991   0.99985653     0.036632788    0.35087551     0.38750829    -0.18312245     792673.82      77.269564      77.269564      132.76316    
Loop time of 516.359 on 600 procs for 50000 steps with 1278441 atoms

Performance: 41831.391 tau/day, 96.832 timesteps/s, 123.794 Matom-step/s
99.3% CPU use with 600 MPI tasks x 1 OpenMP threads

MPI task timing breakdown:
Section |  min time  |  avg time  |  max time  |%varavg| %total
---------------------------------------------------------------
Pair    | 0.11583    | 13.631     | 35.614     | 327.1 |  2.64
Bond    | 0.050076   | 0.28369    | 0.70273    |  33.7 |  0.05
Neigh   | 330.93     | 341.12     | 349.23     |  23.1 | 66.06
Comm    | 30.983     | 77.984     | 132.72     | 266.2 | 15.10
Output  | 0.02163    | 0.10044    | 0.17434    |  15.2 |  0.02
Modify  | 37.717     | 75.296     | 125.71     | 280.9 | 14.58
Other   |            | 7.948      |            |       |  1.54

Nlocal:        2130.74 ave        6657 max           0 min
Histogram: 142 144 20 30 111 32 59 48 2 12
Nghost:        12751.9 ave       25771 max        3557 min
Histogram: 32 82 62 131 77 101 58 40 12 5
Neighs:        21138.5 ave       53838 max           0 min
Histogram: 171 64 26 85 92 0 3 16 23 120

Total # of neighbors = 12683085
Ave neighs/atom = 9.9207433
Ave special neighs/atom = 0.17960625
Neighbor list builds = 8316
Dangerous builds = 0
========================================
Simulation complete
========================================
System init for write_data ...
Generated 0 of 15 mixed pair_coeff terms from geometric mixing rule
Last active /omp style is bond_style fene/omp
WARNING: More than one fix rigid (src/RIGID/fix_rigid.cpp:712)
WARNING: More than one fix rigid (src/RIGID/fix_rigid.cpp:712)
WARNING: More than one fix rigid (src/RIGID/fix_rigid.cpp:712)
WARNING: Not all mixed pair coeffs generated from mixing. Use write_data with 'pair ij' option to store all pair coeffs. (src/write_data.cpp:364)
Total wall time: 0:25:55
======================================
Running post-processing...
======================================
Generating convergence plot...
Generating stress profiles...
Found data file: ./final_flow_walled_slab_support_5beads_tall_4_1.0_1.05_15000000_1.0_1.05_50000.data
Stress profile saved to ./output_plots/walled_slab_support_5beads_tall_4_1.0_1.05_15000000_1.0_1.05_50000_stress.png
No volume data found for walled_slab_support_5beads_tall_4_1.0_1.05_15000000_1.0_1.05_50000, skipping volume fraction plots
Generating piston plots...
Read 20 position points, 20 velocity points
Piston plot saved to ./output_plots/walled_slab_support_5beads_tall_4_1.0_1.05_15000000_1.0_1.05_50000_piston.png

=== Piston Summary ===
Initial position: 116.1990
Final position:   67.8824
Total displacement: -48.3165
Steady-state velocity: 0.00e+00 Â± 0.00e+00
Generating computational efficiency plot...
Found data file: ./data_files/walled_slab_support_5beads_tall_4_1.0_1.05_15000000.data
Mobile atoms: 1152000
======================================
Done! Results are in: /jet/home/dpollard/Documents/lammps_runs/slab_with_flow_walled_slab_support_5beads_tall_4_1.0_1.05_15000000_1.0_1.05_20260216_021541
======================================
