======================================
Working directory: /jet/home/dpollard/Documents/lammps_runs/slab_with_flow_walled_slab_support_5beads_tall_4_1.0_1.05_15000000_1.0_1.05_20260216_025449
Trajectory directory (scratch): /ocean/projects/chm250028p/dpollard/lammps_trajectories/slab_with_flow_walled_slab_support_5beads_tall_4_1.0_1.05_15000000_1.0_1.05_20260216_025449
======================================
Running LAMMPS in slab_with_flow with:
  dataname=walled_slab_support_5beads_tall_4_1.0_1.05_15000000
  epsSS=1.0, epsSP=1.05
  nsteps=50000, oldsteps=0, totsteps=50000
SLURM tasks per node: 120
SLURM CPUs per task: 1
SLURM_GPUS_ON_NODE: 
GPUs allocated: 
Running CPU-only with 600 tasks
LAMMPS (22 Jul 2025)
  using 1 OpenMP thread(s) per MPI task
using multi-threaded neighbor list subroutines
>>> Stress: nevery=100 nrepeat=50 nfreq=5000
>>> Mode: compression_mode=1  (0=permeation, 1=compression)
Reading data file ...
  orthogonal box = (-5.6347822 -5.6347822 -9.6815804) to (71.634782 71.634782 123.08158)
  5 by 8 by 15 MPI processor grid
  reading atoms ...
  1278442 atoms
  scanning bonds ...
  3 = max bonds/atom
  orthogonal box = (-5.6347822 -5.6347822 -9.6815804) to (71.634782 71.634782 123.08158)
  5 by 8 by 15 MPI processor grid
  reading bonds ...
  114808 bonds
Finding 1-2 1-3 1-4 neighbors ...
  special bond factors lj:    0        0        0       
  special bond factors coul:  0        0        0       
     4 = max # of 1-2 neighbors
     4 = max # of 1-3 neighbors
     8 = max # of 1-4 neighbors
    12 = max # of special neighbors
  special bonds CPU = 0.147 seconds
  read_data CPU = 8.800 seconds
========================================
Flow/Compression simulation: walled_slab_support_5beads_tall_4_1.0_1.05_15000000
Interaction: epsSS=1.0, epsSP=1.05
Production steps: 50000
WARNING: Detected non-ASCII characters in input. Will try to continue by replacing with ASCII equivalents where known. (src/input.cpp:478)
Piston force: -0.01 †’ -0.05 (ramp)
========================================
101482 atoms in group polymer
197612 atoms in group solvent
63221 atoms in group support
63221 atoms in group piston
852906 atoms in group walls
299094 atoms in group mobile
425536 atoms in group gel_system
Finding 1-2 1-3 1-4 neighbors ...
  special bond factors lj:    0        1        1       
  special bond factors coul:  0        1        1       
     4 = max # of 1-2 neighbors
    12 = max # of special neighbors
  special bonds CPU = 0.059 seconds
  1 rigid bodies with 63221 atoms
  1 rigid bodies with 63221 atoms
  1 rigid bodies with 852906 atoms
========================================
Phase 1: Soft push to resolve overlaps
========================================
Generated 0 of 15 mixed pair_coeff terms from geometric mixing rule
Hybrid pair style last /omp style soft
Last active /omp style is bond_style fene/omp
WARNING: More than one fix rigid (src/RIGID/fix_rigid.cpp:712)
WARNING: More than one fix rigid (src/RIGID/fix_rigid.cpp:712)
WARNING: More than one fix rigid (src/RIGID/fix_rigid.cpp:712)
Neighbor list info ...
  update: every = 1 steps, delay = 0 steps, check = yes
  max neighbors/atom: 2000, page size: 100000
  master list distance cutoff = 2.8
  ghost atom cutoff = 5
  binsize = 1.4, bins = 56 56 95
  2 neighbor lists, perpetual/occasional/extra = 2 0 0
  (1) pair lj/cut, perpetual
      attributes: half, newton on, omp, cut 2.8
      pair build: half/bin/newton/omp
      stencil: half/bin/3d
      bin: standard
  (2) pair soft, perpetual, skip from (1)
      attributes: half, newton on, omp
      pair build: skip/omp
      stencil: none
      bin: none
Setting up Verlet run ...
  Unit style    : lj
  Current step  : 0
  Time step     : 0.005
Per MPI rank memory allocation (min/avg/max) = 16.56 | 20.82 | 38.92 Mbytes
   Step     c_mobile_temp      PotEng         KinEng         TotEng         Press          Volume           Lx             Ly             Lz      
         0   0              0.50526228     0              0.50526228     0.083476512    792673.82      77.269564      77.269564      132.76316    
      1000   0.82867149     0.32978848     0.290803       0.62059147     0.60544026     792673.82      77.269564      77.269564      132.76316    
Loop time of 24.0109 on 600 procs for 1000 steps with 1278442 atoms

Performance: 17991.860 tau/day, 41.648 timesteps/s, 53.244 Matom-step/s
99.3% CPU use with 600 MPI tasks x 1 OpenMP threads

MPI task timing breakdown:
Section |  min time  |  avg time  |  max time  |%varavg| %total
---------------------------------------------------------------
Pair    | 0.024871   | 0.56175    | 1.6029     |  51.9 |  2.34
Bond    | 0.0010081  | 0.012293   | 0.051438   |  11.0 |  0.05
Neigh   | 18.985     | 19.521     | 19.912     |   4.7 | 81.30
Comm    | 0.84022    | 2.0705     | 3.606      |  41.8 |  8.62
Output  | 0.0040075  | 0.01936    | 0.033073   |   6.6 |  0.08
Modify  | 0.68647    | 1.6025     | 2.9261     |  49.2 |  6.67
Other   |            | 0.2238     |            |       |  0.93

Nlocal:        2130.74 ave        6212 max           0 min
Histogram: 130 119 57 24 116 27 29 80 6 12
Nghost:        12714.6 ave       28821 max        6042 min
Histogram: 143 106 63 122 82 37 23 16 4 4
Neighs:        27727.4 ave       84527 max           0 min
Histogram: 154 67 78 43 43 106 87 16 4 2

Total # of neighbors = 16636461
Ave neighs/atom = 13.013075
Ave special neighs/atom = 0.17960611
Neighbor list builds = 405
Dangerous builds = 0
Generated 0 of 15 mixed pair_coeff terms from geometric mixing rule
Hybrid pair style last /omp style soft
Last active /omp style is bond_style fene/omp
WARNING: More than one fix rigid (src/RIGID/fix_rigid.cpp:712)
WARNING: More than one fix rigid (src/RIGID/fix_rigid.cpp:712)
WARNING: More than one fix rigid (src/RIGID/fix_rigid.cpp:712)
Setting up cg style minimization ...
  Unit style    : lj
  Current step  : 1000
Per MPI rank memory allocation (min/avg/max) = 18.15 | 23.62 | 44.18 Mbytes
   Step     c_mobile_temp      PotEng         KinEng         TotEng         Press          Volume           Lx             Ly             Lz      
      1000   0.82867149     0.32978848     0.290803       0.62059147     0.60544026     792673.82      77.269564      77.269564      132.76316    
      1990   0.82867149    -0.065386532    0.290803       0.22541646     0.057421013    792673.82      77.269564      77.269564      132.76316    
Loop time of 22.017 on 600 procs for 990 steps with 1278442 atoms

99.4% CPU use with 600 MPI tasks x 1 OpenMP threads

Minimization stats:
  Stopping criterion = energy tolerance
  Energy initial, next-to-last, final = 
     0.329788475041832 -0.0653810619884997 -0.0653865320141907
  Force two-norm initial, final = 18519.214 97.099458
  Force max component initial, final = 331.87208 13.776828
  Final line search alpha, max atom move = 0.0036357801 0.050089519
  Iterations, force evaluations = 990 1336

MPI task timing breakdown:
Section |  min time  |  avg time  |  max time  |%varavg| %total
---------------------------------------------------------------
Pair    | 0.0032658  | 0.63275    | 2.7307     |  80.8 |  2.87
Bond    | 0.0010119  | 0.012521   | 0.046167   |  13.5 |  0.06
Neigh   | 16.196     | 16.674     | 17.035     |   4.7 | 75.73
Comm    | 0.94765    | 2.6309     | 4.6359     |  54.2 | 11.95
Output  | 0          | 0          | 0          |   0.0 |  0.00
Modify  | 0.011024   | 0.03959    | 0.13791    |  11.9 |  0.18
Other   |            | 2.028      |            |       |  9.21

Nlocal:        2130.74 ave        6157 max           0 min
Histogram: 130 1 175 24 116 27 30 79 6 12
Nghost:        12673.3 ave       28525 max        6067 min
Histogram: 153 96 63 133 50 56 25 15 5 4
Neighs:        22406.9 ave       73104 max           0 min
Histogram: 309 23 27 41 28 7 6 29 129 1

Total # of neighbors = 13444146
Ave neighs/atom = 10.516039
Ave special neighs/atom = 0.17960611
Neighbor list builds = 363
Dangerous builds = 9
Soft push complete
========================================
Phase 2: Switching to full LJ interactions
========================================
Generated 0 of 15 mixed pair_coeff terms from geometric mixing rule
Last active /omp style is bond_style fene/omp
WARNING: More than one fix rigid (src/RIGID/fix_rigid.cpp:712)
WARNING: More than one fix rigid (src/RIGID/fix_rigid.cpp:712)
WARNING: More than one fix rigid (src/RIGID/fix_rigid.cpp:712)
Neighbor list info ...
  update: every = 1 steps, delay = 0 steps, check = yes
  max neighbors/atom: 2000, page size: 100000
  master list distance cutoff = 2.8
  ghost atom cutoff = 5
  binsize = 1.4, bins = 56 56 95
  1 neighbor lists, perpetual/occasional/extra = 1 0 0
  (1) pair lj/cut/omp, perpetual
      attributes: half, newton on, omp
      pair build: half/bin/newton/omp
      stencil: half/bin/3d
      bin: standard
Setting up cg style minimization ...
  Unit style    : lj
  Current step  : 1990
Per MPI rank memory allocation (min/avg/max) = 17.52 | 23.02 | 43.29 Mbytes
   Step     c_mobile_temp      PotEng         KinEng         TotEng         Press          Volume           Lx             Ly             Lz      
      1990   0.82867149    -0.065495593    0.290803       0.2253074      0.057435223    792673.82      77.269564      77.269564      132.76316    
      1991   0.82867149    -0.065495991    0.290803       0.225307       0.057470631    792673.82      77.269564      77.269564      132.76316    
Loop time of 0.0446568 on 600 procs for 1 steps with 1278442 atoms

99.4% CPU use with 600 MPI tasks x 1 OpenMP threads

Minimization stats:
  Stopping criterion = energy tolerance
  Energy initial, next-to-last, final = 
    -0.0654955930674256 -0.0654955930674256 -0.0654959914290381
  Force two-norm initial, final = 152.85519 133.35479
  Force max component initial, final = 80.431331 37.001397
  Final line search alpha, max atom move = 0.0012432966 0.04600371
  Iterations, force evaluations = 1 2

MPI task timing breakdown:
Section |  min time  |  avg time  |  max time  |%varavg| %total
---------------------------------------------------------------
Pair    | 2.2703e-05 | 0.0014174  | 0.0055769  |   4.1 |  3.17
Bond    | 2.405e-06  | 2.8802e-05 | 0.00011447 |   0.0 |  0.06
Neigh   | 0          | 0          | 0          |   0.0 |  0.00
Comm    | 0.0013718  | 0.0050107  | 0.0092468  |   2.9 | 11.22
Output  | 0          | 0          | 0          |   0.0 |  0.00
Modify  | 1.4497e-05 | 7.0254e-05 | 0.00020156 |   0.0 |  0.16
Other   |            | 0.03813    |            |       | 85.38

Nlocal:        2130.74 ave        6157 max           0 min
Histogram: 130 1 175 24 116 27 30 79 6 12
Nghost:        12673.2 ave       28525 max        6067 min
Histogram: 152 97 63 133 50 56 25 15 5 4
Neighs:        21454.7 ave       64744 max           0 min
Histogram: 307 26 25 40 34 11 1 1 26 129

Total # of neighbors = 12872795
Ave neighs/atom = 10.069127
Ave special neighs/atom = 0.17960611
Neighbor list builds = 0
Dangerous builds = 0
Generated 0 of 15 mixed pair_coeff terms from geometric mixing rule
Last active /omp style is bond_style fene/omp
WARNING: More than one fix rigid (src/RIGID/fix_rigid.cpp:712)
WARNING: More than one fix rigid (src/RIGID/fix_rigid.cpp:712)
WARNING: More than one fix rigid (src/RIGID/fix_rigid.cpp:712)
Setting up Verlet run ...
  Unit style    : lj
  Current step  : 1991
  Time step     : 0.005
Per MPI rank memory allocation (min/avg/max) = 16.39 | 21.49 | 39.92 Mbytes
   Step     c_mobile_temp      PotEng         KinEng         TotEng         Press          Volume           Lx             Ly             Lz      
      1991   0.82867149    -0.065495991    0.290803       0.225307       0.07137953     792673.82      77.269564      77.269564      132.76316    
WARNING: Lost atoms: original 1278442 current 1278441
For more information see https://docs.lammps.org/err0008 (src/thermo.cpp:532)
      6991   9.349584e-05  -0.017398034    3.2810217e-05 -0.017365223   -1.1664137      792673.82      77.269564      77.269564      132.76316    
Loop time of 65.1593 on 600 procs for 5000 steps with 1278441 atoms

Performance: 33149.527 tau/day, 76.735 timesteps/s, 98.101 Matom-step/s
99.3% CPU use with 600 MPI tasks x 1 OpenMP threads

MPI task timing breakdown:
Section |  min time  |  avg time  |  max time  |%varavg| %total
---------------------------------------------------------------
Pair    | 0.0040227  | 1.1695     | 3.3516     | 113.5 |  1.79
Bond    | 0.0031049  | 0.017256   | 0.058326   |  13.2 |  0.03
Neigh   | 48.292     | 49.852     | 51.004     |   8.6 | 76.51
Comm    | 3.2561     | 8.2644     | 13.411     |  88.5 | 12.68
Output  | 0.019674   | 0.099478   | 0.16987    |  15.0 |  0.15
Modify  | 1.9254     | 5.076      | 9.9537     | 101.7 |  7.79
Other   |            | 0.6806     |            |       |  1.04

Nlocal:        2130.74 ave        6203 max           0 min
Histogram: 130 56 120 16 124 27 29 81 5 12
Nghost:          12702 ave       28860 max        6084 min
Histogram: 152 91 69 133 71 38 22 16 4 4
Neighs:        19873.3 ave       55816 max           0 min
Histogram: 266 58 14 21 37 34 13 5 41 111

Total # of neighbors = 11923975
Ave neighs/atom = 9.3269654
Ave special neighs/atom = 0.17960625
Neighbor list builds = 1094
Dangerous builds = 243
========================================
Phase 3a: Thermalizing before initial capture
========================================
Generated 0 of 15 mixed pair_coeff terms from geometric mixing rule
Last active /omp style is bond_style fene/omp
WARNING: More than one fix rigid (src/RIGID/fix_rigid.cpp:712)
WARNING: More than one fix rigid (src/RIGID/fix_rigid.cpp:712)
WARNING: More than one fix rigid (src/RIGID/fix_rigid.cpp:712)
Setting up Verlet run ...
  Unit style    : lj
  Current step  : 6991
  Time step     : 0.005
Per MPI rank memory allocation (min/avg/max) = 15.93 | 20.26 | 38.05 Mbytes
   Step     c_mobile_temp      PotEng         KinEng         TotEng         Press          Volume           Lx             Ly             Lz      
      6991   9.3496152e-05 -0.017398034    3.2810217e-05 -0.017365223   -1.1664056      792673.82      77.269564      77.269564      132.76316    
Loop time of 1.54004e-05 on 600 procs for 0 steps with 1278441 atoms

92.2% CPU use with 600 MPI tasks x 1 OpenMP threads

MPI task timing breakdown:
Section |  min time  |  avg time  |  max time  |%varavg| %total
---------------------------------------------------------------
Pair    | 0          | 0          | 0          |   0.0 |  0.00
Bond    | 0          | 0          | 0          |   0.0 |  0.00
Neigh   | 0          | 0          | 0          |   0.0 |  0.00
Comm    | 0          | 0          | 0          |   0.0 |  0.00
Output  | 0          | 0          | 0          |   0.0 |  0.00
Modify  | 0          | 0          | 0          |   0.0 |  0.00
Other   |            | 1.54e-05   |            |       |100.00

Nlocal:        2130.74 ave        6202 max           0 min
Histogram: 130 54 122 16 124 27 29 81 5 12
Nghost:        12701.9 ave       28860 max        6080 min
Histogram: 152 90 70 133 71 38 22 16 4 4
Neighs:        19889.1 ave       55963 max           0 min
Histogram: 266 58 14 22 37 33 13 6 43 108

Total # of neighbors = 11933462
Ave neighs/atom = 9.3343862
Ave special neighs/atom = 0.17960625
Neighbor list builds = 0
Dangerous builds = 0
>>> Pre-thermalization T = 9.3496152269630011041e-05
Generated 0 of 15 mixed pair_coeff terms from geometric mixing rule
Last active /omp style is bond_style fene/omp
WARNING: More than one fix rigid (src/RIGID/fix_rigid.cpp:712)
WARNING: More than one fix rigid (src/RIGID/fix_rigid.cpp:712)
WARNING: More than one fix rigid (src/RIGID/fix_rigid.cpp:712)
Setting up Verlet run ...
  Unit style    : lj
  Current step  : 6991
  Time step     : 0.005
Per MPI rank memory allocation (min/avg/max) = 15.93 | 20.26 | 38.05 Mbytes
   Step     c_mobile_temp      PotEng         KinEng         TotEng         Press          Volume           Lx             Ly             Lz      
      6991   9.3496152e-05 -0.017398034    3.2810217e-05 -0.017365223   -1.1664056      792673.82      77.269564      77.269564      132.76316    
     10000   0.33476558     0.029666827    0.1174779      0.14714472     0.13445068     792673.82      77.269564      77.269564      132.76316    
     20000   1.0024918      0.18263177     0.35180029     0.53443206     0.012430853    792673.82      77.269564      77.269564      132.76316    
     26991   0.99962049     0.18787183     0.35079267     0.5386645      0.038639895    792673.82      77.269564      77.269564      132.76316    
Loop time of 230.114 on 600 procs for 20000 steps with 1278441 atoms

Performance: 37546.616 tau/day, 86.913 timesteps/s, 111.114 Matom-step/s
99.4% CPU use with 600 MPI tasks x 1 OpenMP threads

MPI task timing breakdown:
Section |  min time  |  avg time  |  max time  |%varavg| %total
---------------------------------------------------------------
Pair    | 0.015125   | 4.843      | 12.455     | 185.7 |  2.10
Bond    | 0.012196   | 0.068935   | 0.23585    |  24.6 |  0.03
Neigh   | 165.11     | 169.56     | 172.74     |  13.9 | 73.69
Comm    | 12.494     | 31.093     | 50.154     | 167.3 | 13.51
Output  | 0.00044489 | 0.00049089 | 0.00056349 |   0.0 |  0.00
Modify  | 8.7806     | 21.87      | 41.505     | 194.3 |  9.50
Other   |            | 2.676      |            |       |  1.16

Nlocal:        2130.74 ave        6437 max           0 min
Histogram: 130 156 20 21 120 26 29 82 4 12
Nghost:        12743.7 ave       29711 max        5295 min
Histogram: 130 37 145 98 106 35 21 14 10 4
Neighs:        19258.7 ave       44298 max           0 min
Histogram: 150 15 106 58 1 27 57 38 89 59

Total # of neighbors = 11555214
Ave neighs/atom = 9.0385196
Ave special neighs/atom = 0.17960625
Neighbor list builds = 3412
Dangerous builds = 0
>>> Post-thermalization T = 0.99962048974642558896
Rg_xx = 228.593321074801  †’  Lx_rg = 52.374801697931097522
Rg_yy = 223.050010504544  †’  Ly_rg = 51.735868853770398346
Rg_zz = 765.055646315931  †’  Lz_rg = 95.815801180134997139
BB:  Lx=54.440659520814300265 Ly=52.654589347296798962 Lz=104.60524586385000134
hw_x = 27.2147452731485
hw_y = 26.8827460285352
hw_z = 49.7873507435736
>>> Initial gel thickness (Rg): L0 = 95.815801180135
>>> Initial gel thickness (BB): L0 = 104.60524586385000134
========================================
Phase 3b: Production €” piston forcing
========================================
  1 rigid bodies with 63221 atoms
WARNING: Temperature for fix modify is not for group all (src/fix_nh.cpp:1402)
>>> Starting Phase 3 production run (nsteps = 50000)
>>> compression_mode = 1
Generated 0 of 15 mixed pair_coeff terms from geometric mixing rule
Last active /omp style is bond_style fene/omp
WARNING: More than one fix rigid (src/RIGID/fix_rigid.cpp:712)
WARNING: More than one fix rigid (src/RIGID/fix_rigid.cpp:712)
WARNING: More than one fix rigid (src/RIGID/fix_rigid.cpp:712)
Setting up Verlet run ...
  Unit style    : lj
  Current step  : 26991
  Time step     : 0.005
Per MPI rank memory allocation (min/avg/max) = 18.95 | 24.54 | 47.09 Mbytes
   Step     c_mobile_temp      PotEng         KinEng         TotEng         Press          Volume           Lx             Ly             Lz      
     26991   0.99962049     0.18787183     0.35079267     0.5386645      0.04109008     792673.82      77.269564      77.269564      132.76316    
>>> gel_strain = -2.0226131636517599155 %
     30000   0.99914324     0.19028384     0.35123384     0.54151768     0.16505194     792673.82      77.269564      77.269564      132.76316    
>>> gel_strain = -0.50725755719356702134 %
     40000   0.99898358     0.19060972     0.3645501      0.55515982     0.065534507    792673.82      77.269564      77.269564      132.76316    
>>> gel_strain = 4.2762967388890196219 %
     50000   1.0087774      0.15545499     0.35618004     0.51163503     0.002866722    792673.82      77.269564      77.269564      132.76316    
>>> gel_strain = 2.8529054012802301799 %
     60000   0.99799041     0.16558066     0.35022967     0.51581033     0.070403303    792673.82      77.269564      77.269564      132.76316    
>>> gel_strain = 5.858564918629619811 %
     70000   1.0010655      0.14632232     0.35141413     0.49773644     0.15223116     792673.82      77.269564      77.269564      132.76316    
     76991   1.0006215      0.14552734     0.35114652     0.49667386     0.12249971     792673.82      77.269564      77.269564      132.76316    
Loop time of 676.305 on 600 procs for 50000 steps with 1278441 atoms

Performance: 31938.269 tau/day, 73.931 timesteps/s, 94.517 Matom-step/s
99.3% CPU use with 600 MPI tasks x 1 OpenMP threads

MPI task timing breakdown:
Section |  min time  |  avg time  |  max time  |%varavg| %total
---------------------------------------------------------------
Pair    | 2.8018     | 45.828     | 114.76     | 419.4 |  6.78
Bond    | 0.98959    | 7.7311     | 31.665     | 173.3 |  1.14
Neigh   | 335.01     | 345.21     | 354.92     |  25.0 | 51.04
Comm    | 37.629     | 113.44     | 228.32     | 425.1 | 16.77
Output  | 0.02079    | 0.12613    | 0.22674    |  20.0 |  0.02
Modify  | 63.683     | 145.1      | 253.68     | 447.3 | 21.46
Other   |            | 18.87      |            |       |  2.79

Nlocal:        2130.74 ave        6583 max           0 min
Histogram: 130 156 20 3 138 31 43 65 2 12
Nghost:        12744.4 ave       25786 max        4954 min
Histogram: 96 36 158 30 109 91 23 47 4 6
Neighs:        19719.4 ave       45807 max           0 min
Histogram: 150 31 82 67 27 62 1 24 34 122

Total # of neighbors = 11831661
Ave neighs/atom = 9.2547572
Ave special neighs/atom = 0.17960625
Neighbor list builds = 8362
Dangerous builds = 0
>>> 10% compression reached (or nsteps exhausted)
>>> Freezing piston and starting stress relaxation
  1 rigid bodies with 63221 atoms
Generated 0 of 15 mixed pair_coeff terms from geometric mixing rule
Last active /omp style is bond_style fene/omp
WARNING: More than one fix rigid (src/RIGID/fix_rigid.cpp:712)
WARNING: More than one fix rigid (src/RIGID/fix_rigid.cpp:712)
WARNING: More than one fix rigid (src/RIGID/fix_rigid.cpp:712)
Setting up Verlet run ...
  Unit style    : lj
  Current step  : 76991
  Time step     : 0.005
Per MPI rank memory allocation (min/avg/max) = 21.76 | 31.55 | 55.96 Mbytes
   Step     c_mobile_temp      PotEng         KinEng         TotEng         Press          Volume           Lx             Ly             Lz      
     76991   1.0006215      0.14552734     0.35114397     0.49667131     0.029167803    792673.82      77.269564      77.269564      132.76316    
>>> gel_strain = 5.8734543819950397747 %
     80000   0.99726988     0.14869248     0.34996779     0.49866027    -0.056999246    792673.82      77.269564      77.269564      132.76316    
>>> gel_strain = 5.6666093593939104167 %
     90000   1.0014732      0.15261009     0.35144283     0.50405292     0.019215658    792673.82      77.269564      77.269564      132.76316    
>>> gel_strain = 5.5866744103504801799 %
    100000   0.99940776     0.15453729     0.35071802     0.50525531    -0.0063959328   792673.82      77.269564      77.269564      132.76316    
>>> gel_strain = 5.520482433486390228 %
    110000   0.99959247     0.15621983     0.35078284     0.50700267     0.078494109    792673.82      77.269564      77.269564      132.76316    
>>> gel_strain = 5.6587983906840397808 %
    120000   0.99830077     0.16003706     0.35032955     0.51036661     0.015290991    792673.82      77.269564      77.269564      132.76316    
    126991   1.0000132      0.16355795     0.35093049     0.51448843    -0.044420818    792673.82      77.269564      77.269564      132.76316    
Loop time of 524.831 on 600 procs for 50000 steps with 1278441 atoms

Performance: 41156.079 tau/day, 95.269 timesteps/s, 121.795 Matom-step/s
99.4% CPU use with 600 MPI tasks x 1 OpenMP threads

MPI task timing breakdown:
Section |  min time  |  avg time  |  max time  |%varavg| %total
---------------------------------------------------------------
Pair    | 0.12486    | 12.442     | 28.528     | 274.7 |  2.37
Bond    | 0.05498    | 0.29148    | 0.70182    |  31.2 |  0.06
Neigh   | 342.62     | 353.03     | 361.16     |  22.7 | 67.27
Comm    | 31.403     | 76.671     | 129.63     | 257.2 | 14.61
Output  | 0.021537   | 0.31979    | 0.54123    |  35.1 |  0.06
Modify  | 38.505     | 73.673     | 122.08     | 263.5 | 14.04
Other   |            | 8.401      |            |       |  1.60

Nlocal:        2130.74 ave        6559 max           0 min
Histogram: 130 156 20 0 141 31 39 69 2 12
Nghost:        12745.3 ave       25846 max        5115 min
Histogram: 99 33 160 30 105 94 22 47 4 6
Neighs:        19527.3 ave       43524 max           0 min
Histogram: 150 17 87 74 5 72 15 24 17 139

Total # of neighbors = 11716390
Ave neighs/atom = 9.1645919
Ave special neighs/atom = 0.17960625
Neighbor list builds = 8323
Dangerous builds = 0
========================================
Simulation complete
========================================
System init for write_data ...
Generated 0 of 15 mixed pair_coeff terms from geometric mixing rule
Last active /omp style is bond_style fene/omp
WARNING: More than one fix rigid (src/RIGID/fix_rigid.cpp:712)
WARNING: More than one fix rigid (src/RIGID/fix_rigid.cpp:712)
WARNING: More than one fix rigid (src/RIGID/fix_rigid.cpp:712)
WARNING: Not all mixed pair coeffs generated from mixing. Use write_data with 'pair ij' option to store all pair coeffs. (src/write_data.cpp:364)
Total wall time: 0:25:56
======================================
Running post-processing...
======================================
Generating convergence plot...
Generating stress profiles...
Found data file: ./final_flow_walled_slab_support_5beads_tall_4_1.0_1.05_15000000_1.0_1.05_50000.data
Stress profile saved to ./output_plots/walled_slab_support_5beads_tall_4_1.0_1.05_15000000_1.0_1.05_50000_stress.png
No volume data found for walled_slab_support_5beads_tall_4_1.0_1.05_15000000_1.0_1.05_50000, skipping volume fraction plots
Generating piston plots...
Read 20 position points, 20 velocity points
Piston plot saved to ./output_plots/walled_slab_support_5beads_tall_4_1.0_1.05_15000000_1.0_1.05_50000_piston.png

=== Piston Summary ===
Initial position: 120.7466
Final position:   78.6469
Total displacement: -42.0996
Steady-state velocity: 0.00e+00 Â± 0.00e+00
Generating computational efficiency plot...
Found data file: ./data_files/walled_slab_support_5beads_tall_4_1.0_1.05_15000000.data
Mobile atoms: 1152000
======================================
Done! Results are in: /jet/home/dpollard/Documents/lammps_runs/slab_with_flow_walled_slab_support_5beads_tall_4_1.0_1.05_15000000_1.0_1.05_20260216_025449
======================================
