======================================
Working directory: /home/dpollard/Documents/lammps_runs/slab_with_flow_walled_slab_support_5beads_tall_4_1.0_1.05_15000000_1.0_1.05_20260302_170108
Trajectory directory (scratch): /expanse/lustre/scratch/dpollard/temp_project/lammps_trajectories/slab_with_flow_walled_slab_support_5beads_tall_4_1.0_1.05_15000000_1.0_1.05_20260302_170108
======================================
Running LAMMPS in slab_with_flow with:
  dataname=walled_slab_support_5beads_tall_4_1.0_1.05_15000000
  epsSS=1.0, epsSP=1.05
  nsteps=50001, oldsteps=0, totsteps=50001
SLURM tasks per node: 120
SLURM CPUs per task: 1
SLURM_GPUS_ON_NODE: 
GPUs allocated: 
Running CPU-only with 120 tasks
LAMMPS (10 Mar 2021)
  using 1 OpenMP thread(s) per MPI task
>>> Stress: nevery=100 nrepeat=50 nfreq=5000
>>> Mode: compression_mode=1  (0=permeation, 1=compression)
Reading data file ...
  orthogonal box = (-5.6347822 -5.6347822 -9.6815804) to (71.634782 71.634782 123.08158)
  4 by 5 by 6 MPI processor grid
  reading atoms ...
  1278442 atoms
  scanning bonds ...
  3 = max bonds/atom
  reading bonds ...
  114808 bonds
Finding 1-2 1-3 1-4 neighbors ...
  special bond factors lj:    0        0        0       
  special bond factors coul:  0        0        0       
     4 = max # of 1-2 neighbors
     4 = max # of 1-3 neighbors
     8 = max # of 1-4 neighbors
    12 = max # of special neighbors
  special bonds CPU = 34.053 seconds
  read_data CPU = 132.810 seconds
========================================
Flow/Compression simulation: walled_slab_support_5beads_tall_4_1.0_1.05_15000000
Interaction: epsSS=1.0, epsSP=1.05
Production steps: 50001
Piston force: -0.01 -> -0.04 (ramp)
========================================
101482 atoms in group polymer
197612 atoms in group solvent
63221 atoms in group support
63221 atoms in group piston
852906 atoms in group walls
299094 atoms in group mobile
425536 atoms in group gel_system
Finding 1-2 1-3 1-4 neighbors ...
  special bond factors lj:    0        1        1       
  special bond factors coul:  0        1        1       
