======================================
Working directory: /jet/home/dpollard/Documents/lammps_runs/slab_with_flow_walled_slab_support_5beads_10x10x5_rho6_extra_padding43_1.5_1.4_10000000_1.5_1.4_20260116_171527
Trajectory directory (scratch): /ocean/projects/chm250028p/dpollard/lammps_trajectories/slab_with_flow_walled_slab_support_5beads_10x10x5_rho6_extra_padding43_1.5_1.4_10000000_1.5_1.4_20260116_171527
======================================
Running LAMMPS in slab_with_flow with:
  dataname=walled_slab_support_5beads_10x10x5_rho6_extra_padding43_1.5_1.4_10000000
  epsSS=1.5, epsSP=1.4
  nsteps=20000, oldsteps=0, totsteps=20000
SLURM tasks per node: 120
SLURM CPUs per task: 1
SLURM_GPUS_ON_NODE: 
GPUs allocated: 
Running CPU-only with 360 tasks
LAMMPS (22 Jul 2025)
  using 1 OpenMP thread(s) per MPI task
using multi-threaded neighbor list subroutines
Reading data file ...
  orthogonal box = (-6.8704069 -6.8704069 -4.3828458) to (93.870407 93.870407 59.882846)
  8 by 9 by 5 MPI processor grid
  reading atoms ...
  1323878 atoms
  scanning bonds ...
  3 = max bonds/atom
  orthogonal box = (-6.8704069 -6.8704069 -4.3828458) to (93.870407 93.870407 59.882846)
  8 by 9 by 5 MPI processor grid
  reading bonds ...
  143511 bonds
Finding 1-2 1-3 1-4 neighbors ...
  special bond factors lj:    0        0        0       
  special bond factors coul:  0        0        0       
     4 = max # of 1-2 neighbors
     4 = max # of 1-3 neighbors
     8 = max # of 1-4 neighbors
    12 = max # of special neighbors
  special bonds CPU = 0.130 seconds
  read_data CPU = 8.415 seconds
========================================
Flow simulation: walled_slab_support_5beads_10x10x5_rho6_extra_padding43_1.5_1.4_10000000
Interaction: epsSS=1.5, epsSP=1.4
Production steps: 20000
Piston force per bead: -0.1
========================================
126752 atoms in group polymer
310822 atoms in group solvent
109654 atoms in group support
109654 atoms in group piston
666996 atoms in group walls
437574 atoms in group mobile
656882 atoms in group gel_system
Finding 1-2 1-3 1-4 neighbors ...
  special bond factors lj:    0        1        1       
  special bond factors coul:  0        1        1       
     4 = max # of 1-2 neighbors
    12 = max # of special neighbors
  special bonds CPU = 0.063 seconds
  1 rigid bodies with 109654 atoms
  1 rigid bodies with 109654 atoms
  1 rigid bodies with 666996 atoms
========================================
Phase 1: Soft push to resolve solvent-piston overlaps
========================================
Generated 0 of 15 mixed pair_coeff terms from geometric mixing rule
Hybrid pair style last /omp style soft
Last active /omp style is bond_style fene/omp
WARNING: More than one fix rigid (src/RIGID/fix_rigid.cpp:712)
WARNING: More than one fix rigid (src/RIGID/fix_rigid.cpp:712)
WARNING: More than one fix rigid (src/RIGID/fix_rigid.cpp:712)
Neighbor list info ...
  update: every = 1 steps, delay = 0 steps, check = yes
  max neighbors/atom: 2000, page size: 100000
  master list distance cutoff = 2.8
  ghost atom cutoff = 5
  binsize = 1.4, bins = 72 72 46
  2 neighbor lists, perpetual/occasional/extra = 2 0 0
  (1) pair lj/cut, perpetual
      attributes: half, newton on, omp, cut 2.8
      pair build: half/bin/newton/omp
      stencil: half/bin/3d
      bin: standard
  (2) pair soft, perpetual, skip from (1)
      attributes: half, newton on, omp
      pair build: skip/omp
      stencil: none
      bin: none
Setting up Verlet run ...
  Unit style    : lj
  Current step  : 0
  Time step     : 0.005
Per MPI rank memory allocation (min/avg/max) = 16.83 | 24.45 | 29.75 Mbytes
   Step          Temp          PotEng         KinEng         TotEng         Press          Volume           Lx             Ly             Lz      
         0   0             -0.032144261    0             -0.032144261    0.021388102    652213.97      100.74081      100.74081      64.265692    
      1000   1.164479      -0.20202633     0.57733972     0.37531339     2.0080674      652213.97      100.74081      100.74081      64.265692    
Loop time of 33.2053 on 360 procs for 1000 steps with 1323878 atoms

Performance: 13009.962 tau/day, 30.116 timesteps/s, 39.869 Matom-step/s
99.4% CPU use with 360 MPI tasks x 1 OpenMP threads

MPI task timing breakdown:
Section |  min time  |  avg time  |  max time  |%varavg| %total
---------------------------------------------------------------
Pair    | 0.74281    | 1.4732     | 2.0363     |  21.0 |  4.44
Bond    | 0.0052978  | 0.022133   | 0.036732   |   5.7 |  0.07
Neigh   | 27.452     | 27.814     | 28.284     |   3.4 | 83.77
Comm    | 1.4334     | 2.067      | 2.906      |  21.0 |  6.22
Output  | 0.0047642  | 0.02549    | 0.043822   |   7.4 |  0.08
Modify  | 0.98059    | 1.5612     | 2.1453     |  20.0 |  4.70
Other   |            | 0.2418     |            |       |  0.73

Nlocal:        3677.44 ave        6860 max        1565 min
Histogram: 126 0 63 21 0 0 55 35 16 44
Nghost:        13897.7 ave       22622 max        7660 min
Histogram: 98 28 12 13 65 60 24 0 8 52
Neighs:         100053 ave      171208 max       36864 min
Histogram: 4 22 78 70 35 54 36 23 22 16

Total # of neighbors = 36019090
Ave neighs/atom = 27.207258
Ave special neighs/atom = 0.21680397
Neighbor list builds = 487
Dangerous builds = 0
Soft push complete - overlaps resolved
========================================
Phase 2: Switching to full LJ interactions
========================================
Generated 0 of 15 mixed pair_coeff terms from geometric mixing rule
Last active /omp style is bond_style fene/omp
WARNING: More than one fix rigid (src/RIGID/fix_rigid.cpp:712)
WARNING: More than one fix rigid (src/RIGID/fix_rigid.cpp:712)
WARNING: More than one fix rigid (src/RIGID/fix_rigid.cpp:712)
Neighbor list info ...
  update: every = 1 steps, delay = 0 steps, check = yes
  max neighbors/atom: 2000, page size: 100000
  master list distance cutoff = 2.8
  ghost atom cutoff = 5
  binsize = 1.4, bins = 72 72 46
  1 neighbor lists, perpetual/occasional/extra = 1 0 0
  (1) pair lj/cut/omp, perpetual
      attributes: half, newton on, omp
      pair build: half/bin/newton/omp
      stencil: half/bin/3d
      bin: standard
Setting up cg style minimization ...
  Unit style    : lj
  Current step  : 1000
Per MPI rank memory allocation (min/avg/max) = 18.84 | 26.84 | 31.73 Mbytes
   Step          Temp          PotEng         KinEng         TotEng         Press          Volume           Lx             Ly             Lz      
      1000   1.164479      -0.3236241      0.57733972     0.25371562     2.2080548      652213.97      100.74081      100.74081      64.265692    
      1587   1.164479      -0.98467631     0.57733972    -0.40733659    -2.0230309      652213.97      100.74081      100.74081      64.265692    
Loop time of 12.4989 on 360 procs for 587 steps with 1323878 atoms

99.4% CPU use with 360 MPI tasks x 1 OpenMP threads

Minimization stats:
  Stopping criterion = energy tolerance
  Energy initial, next-to-last, final = 
    -0.323624096424727 -0.984578784951645 -0.984676311663609
  Force two-norm initial, final = 33797.647 449.8883
  Force max component initial, final = 7715.4407 124.33742
  Final line search alpha, max atom move = 0.0004953769 0.061593886
  Iterations, force evaluations = 587 633

MPI task timing breakdown:
Section |  min time  |  avg time  |  max time  |%varavg| %total
---------------------------------------------------------------
Pair    | 0.090127   | 0.70267    | 1.8728     |  40.8 |  5.62
Bond    | 0.001936   | 0.011627   | 0.020141   |   5.1 |  0.09
Neigh   | 8.5214     | 8.638      | 8.7742     |   1.9 | 69.11
Comm    | 0.50096    | 1.2918     | 2.0409     |  25.6 | 10.34
Output  | 0          | 0          | 0          |   0.0 |  0.00
Modify  | 0.0086991  | 0.025742   | 0.058693   |   8.9 |  0.21
Other   |            | 1.829      |            |       | 14.63

Nlocal:        3677.44 ave        6804 max        1713 min
Histogram: 126 0 79 5 0 3 62 25 17 43
Nghost:        13900.6 ave       22564 max        7818 min
Histogram: 125 1 12 13 69 65 15 0 8 52
Neighs:        51880.8 ave       84651 max        4456 min
Histogram: 19 31 54 41 5 8 22 19 103 58

Total # of neighbors = 18677084
Ave neighs/atom = 14.107859
Ave special neighs/atom = 0.21680397
Neighbor list builds = 164
Dangerous builds = 2
Generated 0 of 15 mixed pair_coeff terms from geometric mixing rule
Last active /omp style is bond_style fene/omp
WARNING: More than one fix rigid (src/RIGID/fix_rigid.cpp:712)
WARNING: More than one fix rigid (src/RIGID/fix_rigid.cpp:712)
WARNING: More than one fix rigid (src/RIGID/fix_rigid.cpp:712)
Setting up Verlet run ...
  Unit style    : lj
  Current step  : 1587
  Time step     : 0.005
Per MPI rank memory allocation (min/avg/max) = 17.72 | 24.98 | 29.48 Mbytes
   Step          Temp          PotEng         KinEng         TotEng         Press          Volume           Lx             Ly             Lz      
      1587   1.164479      -0.98467631     0.57733972    -0.40733659    -0.58335549     652213.97      100.74081      100.74081      64.265692    
WARNING: Lost atoms: original 1323878 current 1323877
For more information see https://docs.lammps.org/err0008 (src/thermo.cpp:532)
      5000   2.7645705     -0.039990681    1.3706538      1.3306631      16.246312      652213.97      100.74081      100.74081      64.265692    
      6587   1.1230588     -0.50821707     0.55680433     0.04858726     0.3788661      652213.97      100.74081      100.74081      64.265692    
Loop time of 133.477 on 360 procs for 5000 steps with 1323877 atoms

Performance: 16182.566 tau/day, 37.460 timesteps/s, 49.592 Matom-step/s
99.4% CPU use with 360 MPI tasks x 1 OpenMP threads

MPI task timing breakdown:
Section |  min time  |  avg time  |  max time  |%varavg| %total
---------------------------------------------------------------
Pair    | 0.27751    | 3.3295     | 5.4031     |  78.7 |  2.49
Bond    | 0.0068283  | 0.032824   | 0.05668    |   8.1 |  0.02
Neigh   | 110.15     | 111.95     | 113.81     |   7.3 | 83.87
Comm    | 6.6717     | 10.177     | 14.274     |  57.7 |  7.62
Output  | 0.022796   | 0.11799    | 0.20308    |  15.9 |  0.09
Modify  | 5.1826     | 7.0869     | 9.2415     |  31.4 |  5.31
Other   |            | 0.7809     |            |       |  0.59

Nlocal:        3677.44 ave        7039 max        1190 min
Histogram: 98 28 0 84 0 11 75 4 1 59
Nghost:        13893.3 ave       23360 max        6170 min
Histogram: 60 66 1 24 65 0 84 0 8 52
Neighs:        53244.8 ave       89025 max        5058 min
Histogram: 12 32 41 30 61 20 11 26 42 85

Total # of neighbors = 19168111
Ave neighs/atom = 14.47877
Ave special neighs/atom = 0.21680413
Neighbor list builds = 2059
Dangerous builds = 704
========================================
Phase 3: Production flow with piston forcing
========================================
  1 rigid bodies with 109654 atoms
Generated 0 of 15 mixed pair_coeff terms from geometric mixing rule
Last active /omp style is bond_style fene/omp
WARNING: More than one fix rigid (src/RIGID/fix_rigid.cpp:712)
WARNING: More than one fix rigid (src/RIGID/fix_rigid.cpp:712)
WARNING: More than one fix rigid (src/RIGID/fix_rigid.cpp:712)
Setting up Verlet run ...
  Unit style    : lj
  Current step  : 6587
  Time step     : 0.005
Per MPI rank memory allocation (min/avg/max) = 16.33 | 23.62 | 27.84 Mbytes
   Step          Temp          PotEng         KinEng         TotEng         Press          Volume           Lx             Ly             Lz      
      6587   1.1230614     -0.50821707     0.55680433     0.04858726     0.49255638     652213.97      100.74081      100.74081      64.265692    
Loop time of 1.20617e-05 on 360 procs for 0 steps with 1323877 atoms

118.3% CPU use with 360 MPI tasks x 1 OpenMP threads

MPI task timing breakdown:
Section |  min time  |  avg time  |  max time  |%varavg| %total
---------------------------------------------------------------
Pair    | 0          | 0          | 0          |   0.0 |  0.00
Bond    | 0          | 0          | 0          |   0.0 |  0.00
Neigh   | 0          | 0          | 0          |   0.0 |  0.00
Comm    | 0          | 0          | 0          |   0.0 |  0.00
Output  | 0          | 0          | 0          |   0.0 |  0.00
Modify  | 0          | 0          | 0          |   0.0 |  0.00
Other   |            | 1.206e-05  |            |       |100.00

Nlocal:        3677.44 ave        7041 max        1190 min
Histogram: 98 28 0 84 0 11 74 5 1 59
Nghost:        13893.5 ave       23358 max        6166 min
Histogram: 60 66 1 23 66 0 84 0 8 52
Neighs:        53245.5 ave       88975 max        5070 min
Histogram: 12 32 40 32 60 20 11 26 44 83

Total # of neighbors = 19168379
Ave neighs/atom = 14.478973
Ave special neighs/atom = 0.21680413
Neighbor list builds = 0
Dangerous builds = 0
Rg_xx = 583.890739537933
Rg_yy = 587.847239137964
Rg_zz = 301.867702294785
hw_x = 39.1454065867677
hw_y = 39.2778091852598
hw_z = 28.1464313528809
Generated 0 of 15 mixed pair_coeff terms from geometric mixing rule
Last active /omp style is bond_style fene/omp
WARNING: More than one fix rigid (src/RIGID/fix_rigid.cpp:712)
WARNING: More than one fix rigid (src/RIGID/fix_rigid.cpp:712)
WARNING: More than one fix rigid (src/RIGID/fix_rigid.cpp:712)
Setting up Verlet run ...
  Unit style    : lj
  Current step  : 6587
  Time step     : 0.005
Per MPI rank memory allocation (min/avg/max) = 19.35 | 28.58 | 33.85 Mbytes
   Step          Temp          PotEng         KinEng         TotEng         Press          Volume           Lx             Ly             Lz      
      6587   1.1230614     -0.50821707     0.55680433     0.04858726     0.49255638     652213.97      100.74081      100.74081      64.265692    
     10000   1.0042518     -0.55312105     0.49789953    -0.055221524    0.37544482     652213.97      100.74081      100.74081      64.265692    
     15000   0.99987927    -0.58415449     0.49573167    -0.088422825    0.39368483     652213.97      100.74081      100.74081      64.265692    
     20000   0.9980072     -0.59233713     0.49480351    -0.097533614    0.48382554     652213.97      100.74081      100.74081      64.265692    
     25000   0.99767472    -0.6019897      0.49463867    -0.10735103     0.41894838     652213.97      100.74081      100.74081      64.265692    
     26587   1.0013932     -0.60374999     0.49648224    -0.10726775     0.56680372     652213.97      100.74081      100.74081      64.265692    
Loop time of 249.39 on 360 procs for 20000 steps with 1323877 atoms

Performance: 34644.557 tau/day, 80.196 timesteps/s, 106.169 Matom-step/s
99.5% CPU use with 360 MPI tasks x 1 OpenMP threads

MPI task timing breakdown:
Section |  min time  |  avg time  |  max time  |%varavg| %total
---------------------------------------------------------------
Pair    | 2.8045     | 12.719     | 18.769     | 123.8 |  5.10
Bond    | 0.046269   | 0.15492    | 0.23488    |  13.4 |  0.06
Neigh   | 186.62     | 189.08     | 192.04     |   8.9 | 75.82
Comm    | 19.105     | 29.43      | 41.007     |  92.0 | 11.80
Output  | 0.011165   | 0.10317    | 0.17013    |  18.6 |  0.04
Modify  | 10.627     | 15.155     | 24.629     |  77.1 |  6.08
Other   |            | 2.752      |            |       |  1.10

Nlocal:        3677.44 ave        6943 max        1599 min
Histogram: 126 0 72 12 0 0 54 36 8 52
Nghost:          12977 ave       22900 max        8055 min
Histogram: 126 0 54 38 40 46 26 0 4 26
Neighs:        52016.3 ave       73977 max       11024 min
Histogram: 6 16 19 46 63 7 27 8 43 125

Total # of neighbors = 18725878
Ave neighs/atom = 14.144726
Ave special neighs/atom = 0.21680413
Neighbor list builds = 3775
Dangerous builds = 0
========================================
Flow simulation complete
========================================
System init for write_data ...
Generated 0 of 15 mixed pair_coeff terms from geometric mixing rule
Last active /omp style is bond_style fene/omp
WARNING: More than one fix rigid (src/RIGID/fix_rigid.cpp:712)
WARNING: More than one fix rigid (src/RIGID/fix_rigid.cpp:712)
WARNING: More than one fix rigid (src/RIGID/fix_rigid.cpp:712)
WARNING: Not all mixed pair coeffs generated from mixing. Use write_data with 'pair ij' option to store all pair coeffs. (src/write_data.cpp:364)
Total wall time: 0:07:20
======================================
Running post-processing...
======================================
Generating convergence plot...
Plot saved to ./output_plots/convergence_plots/walled_slab_support_5beads_10x10x5_rho6_extra_padding43_1.5_1.4_10000000_1.5_1.4_20000_convergence.png
Generating stress profiles...
Warning: Could not find data file (tried walled_slab_support_5beads_10x10x5_rho6_extra_padding43.data and walled_slab_support_5beads_10x10x5_rho6_extra_padding43_1.5_1.4_10000000_1.5_1.4_20000.data), using default box dimensions
Stress profile saved to ./output_plots/walled_slab_support_5beads_10x10x5_rho6_extra_padding43_1.5_1.4_10000000_1.5_1.4_20000_stress.png
No volume data found for walled_slab_support_5beads_10x10x5_rho6_extra_padding43_1.5_1.4_10000000_1.5_1.4_20000, skipping volume fraction plots
Generating piston plots...
Read 2 position points, 2 velocity points
Piston plot saved to ./output_plots/walled_slab_support_5beads_10x10x5_rho6_extra_padding43_1.5_1.4_10000000_1.5_1.4_20000_piston.png

=== Piston Summary ===
Initial position: 56.3270
Final position:   54.1066
Total displacement: -2.2204
Generating computational efficiency plot...
Found data file: ./data_files/walled_slab_support_5beads_10x10x5_rho6_extra_padding43_1.5_1.4_10000000.data
Mobile atoms: 1104570
Tracking info written to /jet/home/dpollard/Documents/lammps_work/tracking.txt
Saved /jet/home/dpollard/Documents/lammps_work/time_vs_atoms.png
Saved /jet/home/dpollard/Documents/lammps_work/time_vs_timesteps.png
======================================
Done! Results are in: /jet/home/dpollard/Documents/lammps_runs/slab_with_flow_walled_slab_support_5beads_10x10x5_rho6_extra_padding43_1.5_1.4_10000000_1.5_1.4_20260116_171527
======================================
