======================================
Working directory: /jet/home/dpollard/Documents/lammps_runs/slab_with_flow_walled_slab_support_5beads_tall_4_1.0_1.05_15000000_1.0_1.05_20260217_202806
Trajectory directory (scratch): /ocean/projects/chm250028p/dpollard/lammps_trajectories/slab_with_flow_walled_slab_support_5beads_tall_4_1.0_1.05_15000000_1.0_1.05_20260217_202806
======================================
Running LAMMPS in slab_with_flow with:
  dataname=walled_slab_support_5beads_tall_4_1.0_1.05_15000000
  epsSS=1.0, epsSP=1.05
  nsteps=10000000, oldsteps=0, totsteps=10000000
SLURM tasks per node: 120
SLURM CPUs per task: 1
SLURM_GPUS_ON_NODE: 
GPUs allocated: 
Running CPU-only with 600 tasks
LAMMPS (22 Jul 2025)
  using 1 OpenMP thread(s) per MPI task
using multi-threaded neighbor list subroutines
>>> Stress: nevery=250 nrepeat=2000 nfreq=500000
>>> Mode: compression_mode=1  (0=permeation, 1=compression)
Reading data file ...
  orthogonal box = (-5.6347822 -5.6347822 -9.6815804) to (71.634782 71.634782 123.08158)
  5 by 8 by 15 MPI processor grid
  reading atoms ...
  1278442 atoms
  scanning bonds ...
  3 = max bonds/atom
  orthogonal box = (-5.6347822 -5.6347822 -9.6815804) to (71.634782 71.634782 123.08158)
  5 by 8 by 15 MPI processor grid
  reading bonds ...
  114808 bonds
Finding 1-2 1-3 1-4 neighbors ...
  special bond factors lj:    0        0        0       
  special bond factors coul:  0        0        0       
     4 = max # of 1-2 neighbors
     4 = max # of 1-3 neighbors
     8 = max # of 1-4 neighbors
    12 = max # of special neighbors
  special bonds CPU = 0.148 seconds
  read_data CPU = 8.309 seconds
========================================
Flow/Compression simulation: walled_slab_support_5beads_tall_4_1.0_1.05_15000000
Interaction: epsSS=1.0, epsSP=1.05
Production steps: 10000000
Piston force: -0.01 -> -0.04 (ramp)
========================================
101482 atoms in group polymer
197612 atoms in group solvent
63221 atoms in group support
63221 atoms in group piston
852906 atoms in group walls
299094 atoms in group mobile
425536 atoms in group gel_system
Finding 1-2 1-3 1-4 neighbors ...
  special bond factors lj:    0        1        1       
  special bond factors coul:  0        1        1       
     4 = max # of 1-2 neighbors
    12 = max # of special neighbors
  special bonds CPU = 0.053 seconds
  1 rigid bodies with 63221 atoms
  1 rigid bodies with 852906 atoms
  1 rigid bodies with 63221 atoms
========================================
Phase 1: Compression equilibration (20000 steps)
========================================
Generated 0 of 15 mixed pair_coeff terms from geometric mixing rule
Last active /omp style is bond_style fene/omp
WARNING: More than one fix rigid (src/RIGID/fix_rigid.cpp:712)
WARNING: More than one fix rigid (src/RIGID/fix_rigid.cpp:712)
WARNING: More than one fix rigid (src/RIGID/fix_rigid.cpp:712)
Neighbor list info ...
  update: every = 1 steps, delay = 0 steps, check = yes
  max neighbors/atom: 2000, page size: 100000
  master list distance cutoff = 2.8
  ghost atom cutoff = 5
  binsize = 1.4, bins = 56 56 95
  1 neighbor lists, perpetual/occasional/extra = 1 0 0
  (1) pair lj/cut/omp, perpetual
      attributes: half, newton on, omp
      pair build: half/bin/newton/omp
      stencil: half/bin/3d
      bin: standard
Setting up cg style minimization ...
  Unit style    : lj
  Current step  : 0
Per MPI rank memory allocation (min/avg/max) = 17.06 | 21.67 | 40.91 Mbytes
   Step     c_mobile_temp      PotEng         KinEng         TotEng         Press          Volume           Lx             Ly             Lz      
         0   0              3.4381667e+14  0              3.4381667e+14  2.2180608e+15  792673.82      77.269564      77.269564      132.76316    
      1000   0             -0.2632358      0             -0.2632358     -1.0191728      792673.82      77.269564      77.269564      132.76316    
Loop time of 11.4035 on 600 procs for 1000 steps with 1278442 atoms

99.3% CPU use with 600 MPI tasks x 1 OpenMP threads

Minimization stats:
  Stopping criterion = max iterations
  Energy initial, next-to-last, final = 
       343816671169424 -0.263019699659449 -0.263235800791819
  Force two-norm initial, final = 3.3345164e+23 789.67934
  Force max component initial, final = 1.6399789e+23 380.96413
  Final line search alpha, max atom move = 0.00070791339 0.26968961
  Iterations, force evaluations = 1000 1091

MPI task timing breakdown:
Section |  min time  |  avg time  |  max time  |%varavg| %total
---------------------------------------------------------------
Pair    | 0.0011673  | 0.44653    | 1.4669     |  55.7 |  3.92
Bond    | 0.00084108 | 0.010177   | 0.044635   |  10.7 |  0.09
Neigh   | 7.6822     | 7.894      | 8.0472     |   3.1 | 69.22
Comm    | 0.66204    | 1.7549     | 3.0876     |  42.8 | 15.39
Output  | 0.0024728  | 0.0024869  | 0.0025128  |   0.0 |  0.02
Modify  | 0.0076267  | 0.028005   | 0.091885   |   9.8 |  0.25
Other   |            | 1.267      |            |       | 11.11

Nlocal:        2130.74 ave        6213 max           0 min
Histogram: 130 155 21 24 105 38 29 80 6 12
Nghost:        12756.7 ave       29003 max        5580 min
Histogram: 143 26 143 105 97 29 32 17 4 4
Neighs:        19628.3 ave       51328 max           0 min
Histogram: 152 96 79 5 23 32 60 47 89 17

Total # of neighbors = 11776988
Ave neighs/atom = 9.2119846
Ave special neighs/atom = 0.17960611
Neighbor list builds = 164
Dangerous builds = 0
Generated 0 of 15 mixed pair_coeff terms from geometric mixing rule
Last active /omp style is bond_style fene/omp
WARNING: More than one fix rigid (src/RIGID/fix_rigid.cpp:712)
WARNING: More than one fix rigid (src/RIGID/fix_rigid.cpp:712)
WARNING: More than one fix rigid (src/RIGID/fix_rigid.cpp:712)
Setting up Verlet run ...
  Unit style    : lj
  Current step  : 1000
  Time step     : 0.005
Per MPI rank memory allocation (min/avg/max) = 15.93 | 20.13 | 37.54 Mbytes
   Step     c_mobile_temp      PotEng         KinEng         TotEng         Press          Volume           Lx             Ly             Lz      
      1000   0             -0.2632358      0             -0.2632358     -0.53839673     792673.82      77.269564      77.269564      132.76316    
     21000   1.000473       0.042965885    0.35109274     0.39405863     0.34086529     792673.82      77.269564      77.269564      132.76316    
Loop time of 222.572 on 600 procs for 20000 steps with 1278442 atoms

Performance: 38818.883 tau/day, 89.859 timesteps/s, 114.879 Matom-step/s
99.4% CPU use with 600 MPI tasks x 1 OpenMP threads

MPI task timing breakdown:
Section |  min time  |  avg time  |  max time  |%varavg| %total
---------------------------------------------------------------
Pair    | 0.015469   | 4.8889     | 11.383     | 180.6 |  2.20
Bond    | 0.012065   | 0.068492   | 0.19786    |  24.4 |  0.03
Neigh   | 157.35     | 161.53     | 164.53     |  13.9 | 72.58
Comm    | 12.332     | 30.735     | 50.389     | 169.1 | 13.81
Output  | 0.072855   | 0.49952    | 0.87076    |  36.9 |  0.22
Modify  | 8.0697     | 21.889     | 41.509     | 198.4 |  9.83
Other   |            | 2.958      |            |       |  1.33

Nlocal:        2130.74 ave        6362 max           0 min
Histogram: 130 156 20 20 120 27 29 80 6 12
Nghost:        12743.9 ave       29568 max        5391 min
Histogram: 130 44 138 107 97 37 20 13 10 4
Neighs:        19350.8 ave       41771 max           0 min
Histogram: 150 3 115 60 2 9 51 48 31 131

Total # of neighbors = 11610467
Ave neighs/atom = 9.0817315
Ave special neighs/atom = 0.17960611
Neighbor list builds = 3215
Dangerous builds = 0
>>> Post-equilibration T = 1.0004729970844872255
Generated 0 of 15 mixed pair_coeff terms from geometric mixing rule
Last active /omp style is bond_style fene/omp
WARNING: More than one fix rigid (src/RIGID/fix_rigid.cpp:712)
WARNING: More than one fix rigid (src/RIGID/fix_rigid.cpp:712)
WARNING: More than one fix rigid (src/RIGID/fix_rigid.cpp:712)
Setting up Verlet run ...
  Unit style    : lj
  Current step  : 21000
  Time step     : 0.005
Per MPI rank memory allocation (min/avg/max) = 15.93 | 20.28 | 37.58 Mbytes
   Step     c_mobile_temp      PotEng         KinEng         TotEng         Press          Volume           Lx             Ly             Lz      
     21000   1.000473       0.042965885    0.35109274     0.39405863     0.33948008     792673.82      77.269564      77.269564      132.76316    
Loop time of 1.38355e-05 on 600 procs for 0 steps with 1278442 atoms

112.4% CPU use with 600 MPI tasks x 1 OpenMP threads

MPI task timing breakdown:
Section |  min time  |  avg time  |  max time  |%varavg| %total
---------------------------------------------------------------
Pair    | 0          | 0          | 0          |   0.0 |  0.00
Bond    | 0          | 0          | 0          |   0.0 |  0.00
Neigh   | 0          | 0          | 0          |   0.0 |  0.00
Comm    | 0          | 0          | 0          |   0.0 |  0.00
Output  | 0          | 0          | 0          |   0.0 |  0.00
Modify  | 0          | 0          | 0          |   0.0 |  0.00
Other   |            | 1.384e-05  |            |       |100.00

Nlocal:        2130.74 ave        6362 max           0 min
Histogram: 130 156 20 20 120 27 29 80 6 12
Nghost:        12743.9 ave       29568 max        5391 min
Histogram: 130 44 138 107 97 37 20 13 10 4
Neighs:        19350.8 ave       41771 max           0 min
Histogram: 150 3 115 60 2 9 51 48 31 131

Total # of neighbors = 11610467
Ave neighs/atom = 9.0817315
Ave special neighs/atom = 0.17960611
Neighbor list builds = 0
Dangerous builds = 0
WARNING: Detected non-ASCII characters in input. Will try to continue by replacing with ASCII equivalents where known. (src/input.cpp:478)
Rg_xx = 225.704183525211  †’  Lx_rg = 52.042772815276997278
Rg_yy = 222.555910507645  †’  Ly_rg = 51.678534480882298396
Rg_zz = 765.213267122411  †’  Lz_rg = 95.825670910612103626
BB:  Lx=54.540188439434402312 Ly=52.680834549163300551 Lz=100.87558438050500342
hw_x = 27.0422180048473
hw_y = 26.8529542144765
hw_z = 49.7924792059666
>>> Initial gel thickness (Rg): L0 = 95.8256709106121
>>> Initial gel thickness (BB): L0 = 100.87558438050500342
========================================
Phase 2: Production €” piston forcing
========================================
  1 rigid bodies with 63221 atoms
WARNING: Temperature for fix modify is not for group all (src/fix_nh.cpp:1402)
>>> Starting Phase 2 production run (nsteps = 10000000)
>>> compression_mode = 1
Generated 0 of 15 mixed pair_coeff terms from geometric mixing rule
Last active /omp style is bond_style fene/omp
WARNING: More than one fix rigid (src/RIGID/fix_rigid.cpp:712)
WARNING: More than one fix rigid (src/RIGID/fix_rigid.cpp:712)
WARNING: More than one fix rigid (src/RIGID/fix_rigid.cpp:712)
Setting up Verlet run ...
  Unit style    : lj
  Current step  : 21000
  Time step     : 0.005
Per MPI rank memory allocation (min/avg/max) = 18.95 | 24.45 | 46.59 Mbytes
   Step     c_mobile_temp      PotEng         KinEng         TotEng         Press          Volume           Lx             Ly             Lz      
     21000   1.000473       0.042965885    0.35109274     0.39405863     0.33948008     792673.82      77.269564      77.269564      132.76316    
>>> gel_strain = 7.7454117139400704417 %
   1000000   0.99889778     0.042515464    0.35053996     0.39305543    -0.084060974    792673.82      77.269564      77.269564      132.76316    
Fix halt condition for fix-id halt_compress met on step 1270000 with value 0.10049368249423389
Loop time of 16450 on 600 procs for 1249000 steps with 1278442 atoms

Performance: 32800.495 tau/day, 75.927 timesteps/s, 97.068 Matom-step/s
99.3% CPU use with 600 MPI tasks x 1 OpenMP threads

MPI task timing breakdown:
Section |  min time  |  avg time  |  max time  |%varavg| %total
---------------------------------------------------------------
Pair    | 70.83      | 1153.3     | 2855.1     |2085.4 |  7.01
Bond    | 22.806     | 193.34     | 810.22     | 914.2 |  1.18
Neigh   | 8167.1     | 8436.2     | 8677.4     | 128.1 | 51.28
Comm    | 848.58     | 2842.9     | 5609.3     |2163.5 | 17.28
Output  | 0.052849   | 0.076988   | 0.10086    |   6.5 |  0.00
Modify  | 1220.9     | 3341.6     | 6069.8     |2358.4 | 20.31
Other   |            | 482.7      |            |       |  2.93

Nlocal:        2130.74 ave        6500 max           0 min
Histogram: 130 156 20 7 134 26 42 71 2 12
Nghost:        13098.4 ave       26415 max        5423 min
Histogram: 100 20 158 46 120 64 38 38 8 8
Neighs:        19480.4 ave       44097 max           0 min
Histogram: 150 9 118 53 1 17 78 31 33 110

Total # of neighbors = 11688266
Ave neighs/atom = 9.1425861
Ave special neighs/atom = 0.17960611
Neighbor list builds = 207674
Dangerous builds = 0
>>> Compression halted (or nsteps exhausted)
>>> Freezing piston and starting stress relaxation
  1 rigid bodies with 63221 atoms
Generated 0 of 15 mixed pair_coeff terms from geometric mixing rule
Last active /omp style is bond_style fene/omp
WARNING: More than one fix rigid (src/RIGID/fix_rigid.cpp:712)
WARNING: More than one fix rigid (src/RIGID/fix_rigid.cpp:712)
WARNING: More than one fix rigid (src/RIGID/fix_rigid.cpp:712)
Setting up Verlet run ...
  Unit style    : lj
  Current step  : 1270000
  Time step     : 0.005
Per MPI rank memory allocation (min/avg/max) = 21.73 | 31.93 | 55.44 Mbytes
   Step     c_mobile_temp      PotEng         KinEng         TotEng         Press          Volume           Lx             Ly             Lz      
   1270000   0.99925845     0.042572874    0.35066652     0.3932394      0.097397414    792673.82      77.269564      77.269564      132.76316    
>>> gel_strain = 12.621576937028200049 %
   2000000   0.99985628     0.044558908    0.35087632     0.39543523     0.030606171    792673.82      77.269564      77.269564      132.76316    
>>> gel_strain = 14.528932485619199255 %
   3000000   1.0026243      0.04711954     0.35184767     0.39896721    -0.069438563    792673.82      77.269564      77.269564      132.76316    
>>> gel_strain = 15.196307933439300086 %
   4000000   0.99873755     0.050969189    0.35048373     0.40145292     0.091501766    792673.82      77.269564      77.269564      132.76316    
>>> gel_strain = 15.314018103464800191 %
   5000000   0.9986405      0.053585357    0.35044967     0.40403503     0.05934859     792673.82      77.269564      77.269564      132.76316    
>>> gel_strain = 15.80891393758300012 %
   6000000   1.0005261      0.050113402    0.35111137     0.40122477     0.087521996    792673.82      77.269564      77.269564      132.76316    
>>> gel_strain = 15.953950661699799696 %
   7000000   1.0001762      0.051868885    0.35098858     0.40285747    -0.033892672    792673.82      77.269564      77.269564      132.76316    
>>> gel_strain = 16.025846513540198401 %
   8000000   1.0000966      0.048096151    0.35096067     0.39905682     0.15167845     792673.82      77.269564      77.269564      132.76316    
>>> gel_strain = 15.885894553599600343 %
   9000000   0.99851914     0.051118733    0.35040708     0.40152581     0.072831182    792673.82      77.269564      77.269564      132.76316    
>>> gel_strain = 15.76883163749299932 %
  10000000   1.00007        0.051430008    0.35095132     0.40238133     0.039026534    792673.82      77.269564      77.269564      132.76316    
>>> gel_strain = 15.944876335075200302 %
  11000000   0.999634       0.055400171    0.35079831     0.40619849     0.12005348     792673.82      77.269564      77.269564      132.76316    
  11270000   1.0005579      0.049489286    0.35112254     0.40061183    -0.059675831    792673.82      77.269564      77.269564      132.76316    
Loop time of 102459 on 600 procs for 10000000 steps with 1278442 atoms

Performance: 42163.318 tau/day, 97.600 timesteps/s, 124.776 Matom-step/s
99.4% CPU use with 600 MPI tasks x 1 OpenMP threads

MPI task timing breakdown:
Section |  min time  |  avg time  |  max time  |%varavg| %total
---------------------------------------------------------------
Pair    | 15.211     | 2427.8     | 5370.8     |3800.5 |  2.37
Bond    | 8.4387     | 44.863     | 139.15     | 524.8 |  0.04
Neigh   | 67346      | 69534      | 71259      | 344.2 | 67.87
Comm    | 6398.2     | 15793      | 26047      |3634.7 | 15.41
Output  | 0.35938    | 0.73523    | 1.0373     |  30.1 |  0.00
Modify  | 6341.2     | 13082      | 22827      |3966.2 | 12.77
Other   |            | 1576       |            |       |  1.54

Nlocal:        2130.74 ave        6436 max           0 min
Histogram: 130 156 20 7 134 26 29 81 5 12
Nghost:        13099.3 ave       26331 max        5517 min
Histogram: 100 20 158 47 111 72 38 38 8 8
Neighs:        19386.5 ave       43402 max           0 min
Histogram: 150 7 122 51 0 13 79 42 34 102

Total # of neighbors = 11631885
Ave neighs/atom = 9.0984847
Ave special neighs/atom = 0.17960611
Neighbor list builds = 1662945
Dangerous builds = 0
========================================
Simulation complete
========================================
System init for write_data ...
Generated 0 of 15 mixed pair_coeff terms from geometric mixing rule
Last active /omp style is bond_style fene/omp
WARNING: More than one fix rigid (src/RIGID/fix_rigid.cpp:712)
WARNING: More than one fix rigid (src/RIGID/fix_rigid.cpp:712)
WARNING: More than one fix rigid (src/RIGID/fix_rigid.cpp:712)
WARNING: Not all mixed pair coeffs generated from mixing. Use write_data with 'pair ij' option to store all pair coeffs. (src/write_data.cpp:364)
Total wall time: 33:05:55
======================================
Running post-processing...
======================================
Generating convergence plot...
Generating stress profiles...
Found data file: ./final_flow_walled_slab_support_5beads_tall_4_1.0_1.05_15000000_1.0_1.05_10000000.data
Stress profile saved to ./output_plots/walled_slab_support_5beads_tall_4_1.0_1.05_15000000_1.0_1.05_10000000_stress.png
Generating piston plots...
Read 1126 position points, 1126 velocity points
Piston plot saved to ./output_plots/walled_slab_support_5beads_tall_4_1.0_1.05_15000000_1.0_1.05_10000000_piston.png

=== Piston Summary ===
Initial position: 113.1406
Final position:   74.4929
Total displacement: -38.6477
Steady-state velocity: 0.00e+00 Â± 0.00e+00
Generating computational efficiency plot...
Found data file: ./data_files/walled_slab_support_5beads_tall_4_1.0_1.05_15000000.data
Mobile atoms: 1152000
======================================
Done! Results are in: /jet/home/dpollard/Documents/lammps_runs/slab_with_flow_walled_slab_support_5beads_tall_4_1.0_1.05_15000000_1.0_1.05_20260217_202806
======================================
