======================================
Working directory: /jet/home/dpollard/Documents/lammps_runs/slab_with_flow_walled_slab_support_5beads_tall_3_1.5_1.4_20000000_1.5_1.4_20260212_232157
Trajectory directory (scratch): /ocean/projects/chm250028p/dpollard/lammps_trajectories/slab_with_flow_walled_slab_support_5beads_tall_3_1.5_1.4_20000000_1.5_1.4_20260212_232157
======================================
Running LAMMPS in slab_with_flow with:
  dataname=walled_slab_support_5beads_tall_3_1.5_1.4_20000000
  epsSS=1.5, epsSP=1.4
  nsteps=100000, oldsteps=0, totsteps=100000
SLURM tasks per node: 120
SLURM CPUs per task: 1
SLURM_GPUS_ON_NODE: 
GPUs allocated: 
Running CPU-only with 600 tasks
LAMMPS (22 Jul 2025)
  using 1 OpenMP thread(s) per MPI task
using multi-threaded neighbor list subroutines
>>> Stress: nevery=100 nrepeat=100 nfreq=10000
>>> Mode: compression_mode=1  (0=permeation, 1=compression)
Reading data file ...
  orthogonal box = (-4.8877761 -4.8877761 -7.0788481) to (74.487776 74.487776 107.87885)
  6 by 10 by 10 MPI processor grid
  reading atoms ...
  1622491 atoms
  scanning bonds ...
  3 = max bonds/atom
  orthogonal box = (-4.8877761 -4.8877761 -7.0788481) to (74.487776 74.487776 107.87885)
  6 by 10 by 10 MPI processor grid
  reading bonds ...
  146984 bonds
Finding 1-2 1-3 1-4 neighbors ...
  special bond factors lj:    0        0        0       
  special bond factors coul:  0        0        0       
     4 = max # of 1-2 neighbors
     4 = max # of 1-3 neighbors
     8 = max # of 1-4 neighbors
    12 = max # of special neighbors
  special bonds CPU = 0.162 seconds
  read_data CPU = 5.031 seconds
========================================
Flow/Compression simulation: walled_slab_support_5beads_tall_3_1.5_1.4_20000000
Interaction: epsSS=1.5, epsSP=1.4
Production steps: 100000
WARNING: Detected non-ASCII characters in input. Will try to continue by replacing with ASCII equivalents where known. (src/input.cpp:478)
Piston force: -0.001 †’ -0.01 (ramp)
========================================
129793 atoms in group polymer
389338 atoms in group solvent
69948 atoms in group support
69948 atoms in group piston
963464 atoms in group walls
519131 atoms in group mobile
659027 atoms in group gel_system
Finding 1-2 1-3 1-4 neighbors ...
  special bond factors lj:    0        1        1       
  special bond factors coul:  0        1        1       
     4 = max # of 1-2 neighbors
    12 = max # of special neighbors
  special bonds CPU = 0.055 seconds
  1 rigid bodies with 69948 atoms
  1 rigid bodies with 69948 atoms
  1 rigid bodies with 963464 atoms
========================================
Phase 1: Soft push to resolve overlaps
========================================
Generated 0 of 15 mixed pair_coeff terms from geometric mixing rule
Hybrid pair style last /omp style soft
Last active /omp style is bond_style fene/omp
WARNING: More than one fix rigid (src/RIGID/fix_rigid.cpp:712)
WARNING: More than one fix rigid (src/RIGID/fix_rigid.cpp:712)
WARNING: More than one fix rigid (src/RIGID/fix_rigid.cpp:712)
Neighbor list info ...
  update: every = 1 steps, delay = 0 steps, check = yes
  max neighbors/atom: 2000, page size: 100000
  master list distance cutoff = 2.8
  ghost atom cutoff = 5
  binsize = 1.4, bins = 57 57 83
  2 neighbor lists, perpetual/occasional/extra = 2 0 0
  (1) pair lj/cut, perpetual
      attributes: half, newton on, omp, cut 2.8
      pair build: half/bin/newton/omp
      stencil: half/bin/3d
      bin: standard
  (2) pair soft, perpetual, skip from (1)
      attributes: half, newton on, omp
      pair build: skip/omp
      stencil: none
      bin: none
Setting up Verlet run ...
  Unit style    : lj
  Current step  : 0
  Time step     : 0.005
Per MPI rank memory allocation (min/avg/max) = 17.9 | 29.01 | 41.66 Mbytes
   Step     c_mobile_temp      PotEng         KinEng         TotEng         Press          Volume           Lx             Ly             Lz      
         0   0             -0.85745834     0             -0.85745834     0.68655016     724288.47      79.375552      79.375552      114.9577     
      1000   1.1258497     -1.0157111      0.54033799    -0.47537312     2.5096276      724288.47      79.375552      79.375552      114.9577     
Loop time of 40.5726 on 600 procs for 1000 steps with 1622491 atoms

Performance: 10647.581 tau/day, 24.647 timesteps/s, 39.990 Matom-step/s
99.2% CPU use with 600 MPI tasks x 1 OpenMP threads

MPI task timing breakdown:
Section |  min time  |  avg time  |  max time  |%varavg| %total
---------------------------------------------------------------
Pair    | 0.76191    | 1.1824     | 2.1321     |  24.0 |  2.91
Bond    | 0.0012339  | 0.017361   | 0.037011   |   5.6 |  0.04
Neigh   | 31.284     | 32.59      | 33.74      |  11.4 | 80.33
Comm    | 0.89338    | 3.7007     | 5.7916     |  60.3 |  9.12
Output  | 0.0040166  | 0.026849   | 0.046758   |   7.7 |  0.07
Modify  | 1.6843     | 2.7707     | 4.2442     |  34.1 |  6.83
Other   |            | 0.2844     |            |       |  0.70

Nlocal:        2704.15 ave        6826 max        1007 min
Histogram: 256 2 62 72 56 29 83 18 18 4
Nghost:        20080.8 ave       41446 max        7019 min
Histogram: 192 0 48 47 109 33 67 72 16 16
Neighs:        71849.9 ave      178755 max       24629 min
Histogram: 30 303 68 57 31 26 24 28 10 23

Total # of neighbors = 43109927
Ave neighs/atom = 26.57021
Ave special neighs/atom = 0.18118313
Neighbor list builds = 487
Dangerous builds = 0
Generated 0 of 15 mixed pair_coeff terms from geometric mixing rule
Hybrid pair style last /omp style soft
Last active /omp style is bond_style fene/omp
WARNING: More than one fix rigid (src/RIGID/fix_rigid.cpp:712)
WARNING: More than one fix rigid (src/RIGID/fix_rigid.cpp:712)
WARNING: More than one fix rigid (src/RIGID/fix_rigid.cpp:712)
Setting up cg style minimization ...
  Unit style    : lj
  Current step  : 1000
Per MPI rank memory allocation (min/avg/max) = 20.39 | 32.88 | 46.9 Mbytes
   Step     c_mobile_temp      PotEng         KinEng         TotEng         Press          Volume           Lx             Ly             Lz      
      1000   1.1258497     -1.0157111      0.54033799    -0.47537312     2.5096276      724288.47      79.375552      79.375552      114.9577     
      1264   1.1258497     -1.5000353      0.54033799    -0.95969728    -2.085014       724288.47      79.375552      79.375552      114.9577     
Loop time of 2.55542 on 600 procs for 264 steps with 1622491 atoms

98.9% CPU use with 600 MPI tasks x 1 OpenMP threads

Minimization stats:
  Stopping criterion = energy tolerance
  Energy initial, next-to-last, final = 
     -1.01571111244495  -1.49990234063048  -1.50003527275921
  Force two-norm initial, final = 31091.331 961.57398
  Force max component initial, final = 1159.761 620.77272
  Final line search alpha, max atom move = 0.00036460958 0.22633968
  Iterations, force evaluations = 264 264

MPI task timing breakdown:
Section |  min time  |  avg time  |  max time  |%varavg| %total
---------------------------------------------------------------
Pair    | 0.059361   | 0.25998    | 0.65088    |  18.3 | 10.17
Bond    | 0.00022701 | 0.0033773  | 0.0086226  |   2.8 |  0.13
Neigh   | 1.1334     | 1.1865     | 1.2309     |   2.4 | 46.43
Comm    | 0.1622     | 0.62527    | 1.0413     |  25.2 | 24.47
Output  | 0          | 0          | 0          |   0.0 |  0.00
Modify  | 0.0022451  | 0.01537    | 0.048644   |   9.9 |  0.60
Other   |            | 0.4649     |            |       | 18.19

Nlocal:        2704.15 ave        6819 max        1038 min
Histogram: 256 2 62 75 53 29 85 16 18 4
Nghost:        20068.4 ave       41447 max        7062 min
Histogram: 192 0 48 47 110 35 64 72 16 16
Neighs:        63903.4 ave      180198 max       13050 min
Histogram: 35 127 268 64 17 12 22 24 9 22

Total # of neighbors = 38342011
Ave neighs/atom = 23.631571
Ave special neighs/atom = 0.18118313
Neighbor list builds = 19
Dangerous builds = 0
Soft push complete
========================================
Phase 2: Switching to full LJ interactions
========================================
Generated 0 of 15 mixed pair_coeff terms from geometric mixing rule
Last active /omp style is bond_style fene/omp
WARNING: More than one fix rigid (src/RIGID/fix_rigid.cpp:712)
WARNING: More than one fix rigid (src/RIGID/fix_rigid.cpp:712)
WARNING: More than one fix rigid (src/RIGID/fix_rigid.cpp:712)
Neighbor list info ...
  update: every = 1 steps, delay = 0 steps, check = yes
  max neighbors/atom: 2000, page size: 100000
  master list distance cutoff = 2.8
  ghost atom cutoff = 5
  binsize = 1.4, bins = 57 57 83
  1 neighbor lists, perpetual/occasional/extra = 1 0 0
  (1) pair lj/cut/omp, perpetual
      attributes: half, newton on, omp
      pair build: half/bin/newton/omp
      stencil: half/bin/3d
      bin: standard
Setting up cg style minimization ...
  Unit style    : lj
  Current step  : 1264
Per MPI rank memory allocation (min/avg/max) = 19.76 | 32.04 | 45.24 Mbytes
   Step     c_mobile_temp      PotEng         KinEng         TotEng         Press          Volume           Lx             Ly             Lz      
      1264   1.1258497     -1.502032       0.54033799    -0.961694      -2.0813323      724288.47      79.375552      79.375552      114.9577     
      1265   1.1258497     -1.5021537      0.54033799    -0.96181574    -2.0834374      724288.47      79.375552      79.375552      114.9577     
Loop time of 0.0572752 on 600 procs for 1 steps with 1622491 atoms

99.4% CPU use with 600 MPI tasks x 1 OpenMP threads

Minimization stats:
  Stopping criterion = energy tolerance
  Energy initial, next-to-last, final = 
     -1.50203199714659  -1.50203199714659  -1.50215373392378
  Force two-norm initial, final = 2511.7105 1302.3652
  Force max component initial, final = 1545.9555 398.18162
  Final line search alpha, max atom move = 6.4684917e-05 0.025756345
  Iterations, force evaluations = 1 1

MPI task timing breakdown:
Section |  min time  |  avg time  |  max time  |%varavg| %total
---------------------------------------------------------------
Pair    | 0.00030453 | 0.0016252  | 0.0028751  |   1.6 |  2.84
Bond    | 1.773e-06  | 2.8202e-05 | 0.00021744 |   0.0 |  0.05
Neigh   | 0          | 0          | 0          |   0.0 |  0.00
Comm    | 0.0016267  | 0.0045158  | 0.0071084  |   2.1 |  7.88
Output  | 0          | 0          | 0          |   0.0 |  0.00
Modify  | 1.3756e-05 | 0.00010606 | 0.0005911  |   0.0 |  0.19
Other   |            | 0.051      |            |       | 89.04

Nlocal:        2704.15 ave        6819 max        1038 min
Histogram: 256 2 62 76 52 29 85 16 18 4
Nghost:        20068.4 ave       41447 max        7060 min
Histogram: 192 0 48 47 110 35 64 72 16 16
Neighs:        35444.5 ave       55818 max        2519 min
Histogram: 48 32 37 67 60 35 6 48 90 177

Total # of neighbors = 21266698
Ave neighs/atom = 13.107437
Ave special neighs/atom = 0.18118313
Neighbor list builds = 0
Dangerous builds = 0
Generated 0 of 15 mixed pair_coeff terms from geometric mixing rule
Last active /omp style is bond_style fene/omp
WARNING: More than one fix rigid (src/RIGID/fix_rigid.cpp:712)
WARNING: More than one fix rigid (src/RIGID/fix_rigid.cpp:712)
WARNING: More than one fix rigid (src/RIGID/fix_rigid.cpp:712)
Setting up Verlet run ...
  Unit style    : lj
  Current step  : 1265
  Time step     : 0.005
Per MPI rank memory allocation (min/avg/max) = 18.63 | 29.81 | 41.86 Mbytes
   Step     c_mobile_temp      PotEng         KinEng         TotEng         Press          Volume           Lx             Ly             Lz      
      1265   1.1258497     -1.5021537      0.54033799    -0.96181574    -1.6281274      724288.47      79.375552      79.375552      114.9577     
WARNING: FENE bond too long: 2938 455585 455582 2.7370248 (src/OPENMP/bond_fene_omp.cpp:116)
WARNING: FENE bond too long: 2939 455585 455582 4.0593431 (src/OPENMP/bond_fene_omp.cpp:116)
WARNING: Lost atoms: original 1622491 current 1622471
For more information see https://docs.lammps.org/err0008 (src/thermo.cpp:532)
      6265   0             -1.6657792      0             -1.6657792     -2.458879       724288.47      79.375552      79.375552      114.9577     
Loop time of 91.5734 on 600 procs for 5000 steps with 1622471 atoms

Performance: 23587.631 tau/day, 54.601 timesteps/s, 88.589 Matom-step/s
99.2% CPU use with 600 MPI tasks x 1 OpenMP threads

MPI task timing breakdown:
Section |  min time  |  avg time  |  max time  |%varavg| %total
---------------------------------------------------------------
Pair    | 0.29759    | 2.1941     | 3.0174     |  47.3 |  2.40
Bond    | 0.003519   | 0.023974   | 0.046247   |   5.8 |  0.03
Neigh   | 63.777     | 66.846     | 69.65      |  19.2 | 73.00
Comm    | 4.4831     | 14.155     | 22.335     | 124.3 | 15.46
Output  | 0.018201   | 0.22105    | 0.41587    |  23.7 |  0.24
Modify  | 3.1678     | 7.1908     | 13.216     | 102.3 |  7.85
Other   |            | 0.943      |            |       |  1.03

Nlocal:        2704.12 ave        6858 max        1051 min
Histogram: 256 5 59 66 62 27 90 13 19 3
Nghost:        20073.5 ave       41728 max        6913 min
Histogram: 192 0 48 39 117 16 84 72 16 16
Neighs:        36057.1 ave       49727 max        3127 min
Histogram: 27 9 17 26 54 83 31 39 107 207

Total # of neighbors = 21634244
Ave neighs/atom = 13.334133
Ave special neighs/atom = 0.18118352
Neighbor list builds = 1093
Dangerous builds = 495
========================================
Phase 3: Production €” piston forcing
========================================
  1 rigid bodies with 69948 atoms
WARNING: Temperature for fix modify is not for group all (src/fix_nh.cpp:1402)
Generated 0 of 15 mixed pair_coeff terms from geometric mixing rule
Last active /omp style is bond_style fene/omp
WARNING: More than one fix rigid (src/RIGID/fix_rigid.cpp:712)
WARNING: More than one fix rigid (src/RIGID/fix_rigid.cpp:712)
WARNING: More than one fix rigid (src/RIGID/fix_rigid.cpp:712)
Setting up Verlet run ...
  Unit style    : lj
  Current step  : 6265
  Time step     : 0.005
Per MPI rank memory allocation (min/avg/max) = 17.28 | 28.2 | 40 Mbytes
   Step     c_mobile_temp      PotEng         KinEng         TotEng         Press          Volume           Lx             Ly             Lz      
      6265   0             -1.6657792      0             -1.6657792     -2.4588929      724288.47      79.375552      79.375552      114.9577     
Loop time of 1.29804e-05 on 600 procs for 0 steps with 1622471 atoms

110.6% CPU use with 600 MPI tasks x 1 OpenMP threads

MPI task timing breakdown:
Section |  min time  |  avg time  |  max time  |%varavg| %total
---------------------------------------------------------------
Pair    | 0          | 0          | 0          |   0.0 |  0.00
Bond    | 0          | 0          | 0          |   0.0 |  0.00
Neigh   | 0          | 0          | 0          |   0.0 |  0.00
Comm    | 0          | 0          | 0          |   0.0 |  0.00
Output  | 0          | 0          | 0          |   0.0 |  0.00
Modify  | 0          | 0          | 0          |   0.0 |  0.00
Other   |            | 1.298e-05  |            |       |100.00

Nlocal:        2704.12 ave        6858 max        1050 min
Histogram: 256 5 59 66 62 27 90 13 19 3
Nghost:        20073.1 ave       41729 max        6912 min
Histogram: 192 0 48 39 117 16 84 72 16 16
Neighs:        36052.7 ave       49687 max        3113 min
Histogram: 27 9 18 24 55 82 32 39 105 209

Total # of neighbors = 21631648
Ave neighs/atom = 13.332533
Ave special neighs/atom = 0.18118352
Neighbor list builds = 0
Dangerous builds = 0
Rg_xx = 378.12095340316
Rg_yy = 374.579091291542
Rg_zz = 721.029846219007
hw_x = 35.0015983781633
hw_y = 34.8372825545363
hw_z = 48.3335980633512
ERROR: Variable gel_lz: Variable formula compute cannot be invoked before initialization by a run (src/variable.cpp:1605)
======================================
Running post-processing...
======================================
Generating convergence plot...
Generating stress profiles...
No stress data found for walled_slab_support_5beads_tall_3_1.5_1.4_20000000_1.5_1.4_100000, skipping stress plots
No volume data found for walled_slab_support_5beads_tall_3_1.5_1.4_20000000_1.5_1.4_100000, skipping volume fraction plots
Generating piston plots...
Error: Piston position file not found: ./output_files/piston_data/piston_position_walled_slab_support_5beads_tall_3_1.5_1.4_20000000_1.5_1.4_100000.dat
Generating computational efficiency plot...
Found data file: ./data_files/walled_slab_support_5beads_tall_3_1.5_1.4_20000000.data
Mobile atoms: 1482595
======================================
Done! Results are in: /jet/home/dpollard/Documents/lammps_runs/slab_with_flow_walled_slab_support_5beads_tall_3_1.5_1.4_20000000_1.5_1.4_20260212_232157
======================================
