======================================
Working directory: /jet/home/dpollard/Documents/lammps_runs/slab_with_flow_walled_slab_support_5beads_tall_4_1.0_1.05_15000000_1.0_1.05_20260214_133024
Trajectory directory (scratch): /ocean/projects/chm250028p/dpollard/lammps_trajectories/slab_with_flow_walled_slab_support_5beads_tall_4_1.0_1.05_15000000_1.0_1.05_20260214_133024
======================================
Running LAMMPS in slab_with_flow with:
  dataname=walled_slab_support_5beads_tall_4_1.0_1.05_15000000
  epsSS=1.0, epsSP=1.05
  nsteps=100000, oldsteps=0, totsteps=100000
SLURM tasks per node: 120
SLURM CPUs per task: 1
SLURM_GPUS_ON_NODE: 
GPUs allocated: 
Running CPU-only with 600 tasks
LAMMPS (22 Jul 2025)
  using 1 OpenMP thread(s) per MPI task
using multi-threaded neighbor list subroutines
>>> Stress: nevery=100 nrepeat=100 nfreq=10000
>>> Mode: compression_mode=1  (0=permeation, 1=compression)
Reading data file ...
  orthogonal box = (-5.6347822 -5.6347822 -9.6815804) to (71.634782 71.634782 123.08158)
  5 by 8 by 15 MPI processor grid
  reading atoms ...
  1278442 atoms
  scanning bonds ...
  3 = max bonds/atom
  orthogonal box = (-5.6347822 -5.6347822 -9.6815804) to (71.634782 71.634782 123.08158)
  5 by 8 by 15 MPI processor grid
  reading bonds ...
  114808 bonds
Finding 1-2 1-3 1-4 neighbors ...
  special bond factors lj:    0        0        0       
  special bond factors coul:  0        0        0       
     4 = max # of 1-2 neighbors
     4 = max # of 1-3 neighbors
     8 = max # of 1-4 neighbors
    12 = max # of special neighbors
  special bonds CPU = 0.152 seconds
  read_data CPU = 8.105 seconds
========================================
Flow/Compression simulation: walled_slab_support_5beads_tall_4_1.0_1.05_15000000
Interaction: epsSS=1.0, epsSP=1.05
Production steps: 100000
WARNING: Detected non-ASCII characters in input. Will try to continue by replacing with ASCII equivalents where known. (src/input.cpp:478)
Piston force: -0.001 †’ -0.01 (ramp)
========================================
101482 atoms in group polymer
197612 atoms in group solvent
63221 atoms in group support
63221 atoms in group piston
852906 atoms in group walls
299094 atoms in group mobile
425536 atoms in group gel_system
Finding 1-2 1-3 1-4 neighbors ...
  special bond factors lj:    0        1        1       
  special bond factors coul:  0        1        1       
     4 = max # of 1-2 neighbors
    12 = max # of special neighbors
  special bonds CPU = 0.054 seconds
  1 rigid bodies with 63221 atoms
  1 rigid bodies with 63221 atoms
  1 rigid bodies with 852906 atoms
========================================
Phase 1: Soft push to resolve overlaps
========================================
Generated 0 of 15 mixed pair_coeff terms from geometric mixing rule
Hybrid pair style last /omp style soft
Last active /omp style is bond_style fene/omp
WARNING: More than one fix rigid (src/RIGID/fix_rigid.cpp:712)
WARNING: More than one fix rigid (src/RIGID/fix_rigid.cpp:712)
WARNING: More than one fix rigid (src/RIGID/fix_rigid.cpp:712)
Neighbor list info ...
  update: every = 1 steps, delay = 0 steps, check = yes
  max neighbors/atom: 2000, page size: 100000
  master list distance cutoff = 2.8
  ghost atom cutoff = 5
  binsize = 1.4, bins = 56 56 95
  2 neighbor lists, perpetual/occasional/extra = 2 0 0
  (1) pair lj/cut, perpetual
      attributes: half, newton on, omp, cut 2.8
      pair build: half/bin/newton/omp
      stencil: half/bin/3d
      bin: standard
  (2) pair soft, perpetual, skip from (1)
      attributes: half, newton on, omp
      pair build: skip/omp
      stencil: none
      bin: none
Setting up Verlet run ...
  Unit style    : lj
  Current step  : 0
  Time step     : 0.005
Per MPI rank memory allocation (min/avg/max) = 16.56 | 20.82 | 38.92 Mbytes
   Step     c_mobile_temp      PotEng         KinEng         TotEng         Press          Volume           Lx             Ly             Lz      
         0   0              0.50526228     0              0.50526228     0.083476512    792673.82      77.269564      77.269564      132.76316    
      1000   0.82867149     0.32978848     0.290803       0.62059147     0.60544026     792673.82      77.269564      77.269564      132.76316    
Loop time of 23.9427 on 600 procs for 1000 steps with 1278442 atoms

Performance: 18043.098 tau/day, 41.766 timesteps/s, 53.396 Matom-step/s
99.3% CPU use with 600 MPI tasks x 1 OpenMP threads

MPI task timing breakdown:
Section |  min time  |  avg time  |  max time  |%varavg| %total
---------------------------------------------------------------
Pair    | 0.024777   | 0.56133    | 1.5612     |  51.7 |  2.34
Bond    | 0.0010232  | 0.012196   | 0.038155   |  10.8 |  0.05
Neigh   | 19.108     | 19.64      | 20.035     |   4.7 | 82.03
Comm    | 0.82489    | 2.0769     | 3.614      |  42.5 |  8.67
Output  | 0.0038844  | 0.019395   | 0.033385   |   6.8 |  0.08
Modify  | 0.55685    | 1.4036     | 2.737      |  52.9 |  5.86
Other   |            | 0.2288     |            |       |  0.96

Nlocal:        2130.74 ave        6212 max           0 min
Histogram: 130 119 57 24 116 27 29 80 6 12
Nghost:        12714.6 ave       28821 max        6042 min
Histogram: 143 106 63 122 82 37 23 16 4 4
Neighs:        27727.4 ave       84527 max           0 min
Histogram: 154 67 78 43 43 106 87 16 4 2

Total # of neighbors = 16636461
Ave neighs/atom = 13.013075
Ave special neighs/atom = 0.17960611
Neighbor list builds = 405
Dangerous builds = 0
Generated 0 of 15 mixed pair_coeff terms from geometric mixing rule
Hybrid pair style last /omp style soft
Last active /omp style is bond_style fene/omp
WARNING: More than one fix rigid (src/RIGID/fix_rigid.cpp:712)
WARNING: More than one fix rigid (src/RIGID/fix_rigid.cpp:712)
WARNING: More than one fix rigid (src/RIGID/fix_rigid.cpp:712)
Setting up cg style minimization ...
  Unit style    : lj
  Current step  : 1000
Per MPI rank memory allocation (min/avg/max) = 18.15 | 23.62 | 44.18 Mbytes
   Step     c_mobile_temp      PotEng         KinEng         TotEng         Press          Volume           Lx             Ly             Lz      
      1000   0.82867149     0.32978848     0.290803       0.62059147     0.60544026     792673.82      77.269564      77.269564      132.76316    
      1990   0.82867149    -0.065386532    0.290803       0.22541646     0.057421013    792673.82      77.269564      77.269564      132.76316    
Loop time of 21.5848 on 600 procs for 990 steps with 1278442 atoms

99.4% CPU use with 600 MPI tasks x 1 OpenMP threads

Minimization stats:
  Stopping criterion = energy tolerance
  Energy initial, next-to-last, final = 
     0.329788475041832 -0.0653810619884997 -0.0653865320141907
  Force two-norm initial, final = 18519.214 97.099458
  Force max component initial, final = 331.87208 13.776828
  Final line search alpha, max atom move = 0.0036357801 0.050089519
  Iterations, force evaluations = 990 1336

MPI task timing breakdown:
Section |  min time  |  avg time  |  max time  |%varavg| %total
---------------------------------------------------------------
Pair    | 0.0033016  | 0.63139    | 2.4387     |  80.5 |  2.93
Bond    | 0.0010213  | 0.012488   | 0.044096   |  13.4 |  0.06
Neigh   | 16.179     | 16.651     | 17.013     |   4.7 | 77.14
Comm    | 0.95178    | 2.6256     | 4.3972     |  54.1 | 12.16
Output  | 0          | 0          | 0          |   0.0 |  0.00
Modify  | 0.01121    | 0.039944   | 0.14007    |  12.0 |  0.19
Other   |            | 1.625      |            |       |  7.53

Nlocal:        2130.74 ave        6157 max           0 min
Histogram: 130 1 175 24 116 27 30 79 6 12
Nghost:        12673.3 ave       28525 max        6067 min
Histogram: 153 96 63 133 50 56 25 15 5 4
Neighs:        22406.9 ave       73104 max           0 min
Histogram: 309 23 27 41 28 7 6 29 129 1

Total # of neighbors = 13444146
Ave neighs/atom = 10.516039
Ave special neighs/atom = 0.17960611
Neighbor list builds = 363
Dangerous builds = 9
Soft push complete
========================================
Phase 2: Switching to full LJ interactions
========================================
Generated 0 of 15 mixed pair_coeff terms from geometric mixing rule
Last active /omp style is bond_style fene/omp
WARNING: More than one fix rigid (src/RIGID/fix_rigid.cpp:712)
WARNING: More than one fix rigid (src/RIGID/fix_rigid.cpp:712)
WARNING: More than one fix rigid (src/RIGID/fix_rigid.cpp:712)
Neighbor list info ...
  update: every = 1 steps, delay = 0 steps, check = yes
  max neighbors/atom: 2000, page size: 100000
  master list distance cutoff = 2.8
  ghost atom cutoff = 5
  binsize = 1.4, bins = 56 56 95
  1 neighbor lists, perpetual/occasional/extra = 1 0 0
  (1) pair lj/cut/omp, perpetual
      attributes: half, newton on, omp
      pair build: half/bin/newton/omp
      stencil: half/bin/3d
      bin: standard
Setting up cg style minimization ...
  Unit style    : lj
  Current step  : 1990
Per MPI rank memory allocation (min/avg/max) = 17.52 | 23.02 | 43.29 Mbytes
   Step     c_mobile_temp      PotEng         KinEng         TotEng         Press          Volume           Lx             Ly             Lz      
      1990   0.82867149    -0.065495593    0.290803       0.2253074      0.057435223    792673.82      77.269564      77.269564      132.76316    
      1991   0.82867149    -0.065495991    0.290803       0.225307       0.057470631    792673.82      77.269564      77.269564      132.76316    
Loop time of 0.0408811 on 600 procs for 1 steps with 1278442 atoms

99.4% CPU use with 600 MPI tasks x 1 OpenMP threads

Minimization stats:
  Stopping criterion = energy tolerance
  Energy initial, next-to-last, final = 
    -0.0654955930674256 -0.0654955930674256 -0.0654959914290381
  Force two-norm initial, final = 152.85519 133.35479
  Force max component initial, final = 80.431331 37.001397
  Final line search alpha, max atom move = 0.0012432966 0.04600371
  Iterations, force evaluations = 1 2

MPI task timing breakdown:
Section |  min time  |  avg time  |  max time  |%varavg| %total
---------------------------------------------------------------
Pair    | 2.3224e-05 | 0.0014403  | 0.0051817  |   4.1 |  3.52
Bond    | 2.344e-06  | 2.8615e-05 | 0.00011337 |   0.0 |  0.07
Neigh   | 0          | 0          | 0          |   0.0 |  0.00
Comm    | 0.0014423  | 0.0048529  | 0.0093619  |   2.8 | 11.87
Output  | 0          | 0          | 0          |   0.0 |  0.00
Modify  | 1.5688e-05 | 7.2023e-05 | 0.00034609 |   0.0 |  0.18
Other   |            | 0.03449    |            |       | 84.36

Nlocal:        2130.74 ave        6157 max           0 min
Histogram: 130 1 175 24 116 27 30 79 6 12
Nghost:        12673.2 ave       28525 max        6067 min
Histogram: 152 97 63 133 50 56 25 15 5 4
Neighs:        21454.7 ave       64744 max           0 min
Histogram: 307 26 25 40 34 11 1 1 26 129

Total # of neighbors = 12872795
Ave neighs/atom = 10.069127
Ave special neighs/atom = 0.17960611
Neighbor list builds = 0
Dangerous builds = 0
Generated 0 of 15 mixed pair_coeff terms from geometric mixing rule
Last active /omp style is bond_style fene/omp
WARNING: More than one fix rigid (src/RIGID/fix_rigid.cpp:712)
WARNING: More than one fix rigid (src/RIGID/fix_rigid.cpp:712)
WARNING: More than one fix rigid (src/RIGID/fix_rigid.cpp:712)
Setting up Verlet run ...
  Unit style    : lj
  Current step  : 1991
  Time step     : 0.005
Per MPI rank memory allocation (min/avg/max) = 16.39 | 21.49 | 39.92 Mbytes
   Step     c_mobile_temp      PotEng         KinEng         TotEng         Press          Volume           Lx             Ly             Lz      
      1991   0.82867149    -0.065495991    0.290803       0.225307       0.07137953     792673.82      77.269564      77.269564      132.76316    
WARNING: Lost atoms: original 1278442 current 1278441
For more information see https://docs.lammps.org/err0008 (src/thermo.cpp:532)
      6991   9.349584e-05  -0.017398034    3.2810217e-05 -0.017365223   -1.1664137      792673.82      77.269564      77.269564      132.76316    
Loop time of 64.9338 on 600 procs for 5000 steps with 1278441 atoms

Performance: 33264.635 tau/day, 77.001 timesteps/s, 98.442 Matom-step/s
99.4% CPU use with 600 MPI tasks x 1 OpenMP threads

MPI task timing breakdown:
Section |  min time  |  avg time  |  max time  |%varavg| %total
---------------------------------------------------------------
Pair    | 0.0040339  | 1.1686     | 3.3402     | 113.4 |  1.80
Bond    | 0.0031292  | 0.017146   | 0.052841   |  13.2 |  0.03
Neigh   | 47.888     | 49.458     | 50.655     |   8.7 | 76.17
Comm    | 3.2403     | 8.3071     | 13.432     |  88.4 | 12.79
Output  | 0.020081   | 0.09672    | 0.16605    |  15.1 |  0.15
Modify  | 1.981      | 5.2223     | 10.127     | 100.6 |  8.04
Other   |            | 0.6643     |            |       |  1.02

Nlocal:        2130.74 ave        6203 max           0 min
Histogram: 130 56 120 16 124 27 29 81 5 12
Nghost:          12702 ave       28860 max        6084 min
Histogram: 152 91 69 133 71 38 22 16 4 4
Neighs:        19873.3 ave       55816 max           0 min
Histogram: 266 58 14 21 37 34 13 5 41 111

Total # of neighbors = 11923975
Ave neighs/atom = 9.3269654
Ave special neighs/atom = 0.17960625
Neighbor list builds = 1094
Dangerous builds = 243
========================================
Phase 3: Production €” piston forcing
========================================
  1 rigid bodies with 63221 atoms
WARNING: Temperature for fix modify is not for group all (src/fix_nh.cpp:1402)
Generated 0 of 15 mixed pair_coeff terms from geometric mixing rule
Last active /omp style is bond_style fene/omp
WARNING: More than one fix rigid (src/RIGID/fix_rigid.cpp:712)
WARNING: More than one fix rigid (src/RIGID/fix_rigid.cpp:712)
WARNING: More than one fix rigid (src/RIGID/fix_rigid.cpp:712)
Setting up Verlet run ...
  Unit style    : lj
  Current step  : 6991
  Time step     : 0.005
Per MPI rank memory allocation (min/avg/max) = 15.93 | 20.26 | 38.05 Mbytes
   Step     c_mobile_temp      PotEng         KinEng         TotEng         Press          Volume           Lx             Ly             Lz      
      6991   9.3496152e-05 -0.017398034    3.2810217e-05 -0.017365223   -1.1664056      792673.82      77.269564      77.269564      132.76316    
Loop time of 1.32648e-05 on 600 procs for 0 steps with 1278441 atoms

110.8% CPU use with 600 MPI tasks x 1 OpenMP threads

MPI task timing breakdown:
Section |  min time  |  avg time  |  max time  |%varavg| %total
---------------------------------------------------------------
Pair    | 0          | 0          | 0          |   0.0 |  0.00
Bond    | 0          | 0          | 0          |   0.0 |  0.00
Neigh   | 0          | 0          | 0          |   0.0 |  0.00
Comm    | 0          | 0          | 0          |   0.0 |  0.00
Output  | 0          | 0          | 0          |   0.0 |  0.00
Modify  | 0          | 0          | 0          |   0.0 |  0.00
Other   |            | 1.326e-05  |            |       |100.00

Nlocal:        2130.74 ave        6202 max           0 min
Histogram: 130 54 122 16 124 27 29 81 5 12
Nghost:        12701.9 ave       28860 max        6080 min
Histogram: 152 90 70 133 71 38 22 16 4 4
Neighs:        19889.1 ave       55963 max           0 min
Histogram: 266 58 14 22 37 33 13 6 43 108

Total # of neighbors = 11933462
Ave neighs/atom = 9.3343862
Ave special neighs/atom = 0.17960625
Neighbor list builds = 0
Dangerous builds = 0
Rg_xx = 206.502829577252  †’  Lx_rg = 49.779854910666699652
Rg_yy = 199.136402598409  †’  Ly_rg = 48.883911782721597206
Rg_zz = 737.847241851192  †’  Lz_rg = 94.096582840262101399
BB:  Lx=54.292722104740498423 Ly=51.050748161735697295 Lz=103.02407792183299762
hw_x = 25.8663713696046
hw_y = 25.4008256641167
hw_z = 48.8940186893843
>>> Initial gel thickness (Rg): L0 = 94.0965828402621
>>> Initial gel thickness (BB): L0 = 103.02407792183299762
>>> Starting Phase 3 production run (nsteps = 100000)
>>> compression_mode = 1
Generated 0 of 15 mixed pair_coeff terms from geometric mixing rule
Last active /omp style is bond_style fene/omp
WARNING: More than one fix rigid (src/RIGID/fix_rigid.cpp:712)
WARNING: More than one fix rigid (src/RIGID/fix_rigid.cpp:712)
WARNING: More than one fix rigid (src/RIGID/fix_rigid.cpp:712)
Setting up Verlet run ...
  Unit style    : lj
  Current step  : 6991
  Time step     : 0.005
Per MPI rank memory allocation (min/avg/max) = 18.95 | 24.38 | 47.07 Mbytes
   Step     c_mobile_temp      PotEng         KinEng         TotEng         Press          Volume           Lx             Ly             Lz      
      6991   9.3496152e-05 -0.017398034    3.2810217e-05 -0.017365223   -1.1664056      792673.82      77.269564      77.269564      132.76316    
>>> gel_strain = 2.3962985277651300819 %
     10000   0.25311785    -0.00081614796  0.088827639    0.088011491    0.050592831    792673.82      77.269564      77.269564      132.76316    
>>> gel_strain = -3.118762303059440022 %
     20000   0.99962668     0.20007627     0.35080464     0.5508809      0.14656036     792673.82      77.269564      77.269564      132.76316    
>>> gel_strain = -4.01681865239248026 %
     30000   0.99808823     0.19341392     0.35027563     0.54368955     0.16742452     792673.82      77.269564      77.269564      132.76316    
>>> gel_strain = -3.2827991199208201856 %
     40000   0.99677698     0.1906609      0.34983034     0.54049124    -0.028672926    792673.82      77.269564      77.269564      132.76316    
>>> gel_strain = -3.6406162783075100009 %
     50000   0.99835778     0.19554282     0.35040397     0.54594678     0.044759474    792673.82      77.269564      77.269564      132.76316    
>>> gel_strain = -3.1683633483857498447 %
     60000   0.99890086     0.19232371     0.35061742     0.54294113    -0.019256098    792673.82      77.269564      77.269564      132.76316    
>>> gel_strain = -3.3415039793361600573 %
     70000   0.99843743     0.19654858     0.35048168     0.54703027     0.037557109    792673.82      77.269564      77.269564      132.76316    
>>> gel_strain = -3.1192463270349799487 %
     80000   0.99762193     0.19204305     0.35022639     0.54226944     0.074447346    792673.82      77.269564      77.269564      132.76316    
>>> gel_strain = -3.2509472777233501262 %
     90000   0.99943529     0.19083311     0.35089765     0.54173075    -0.038098241    792673.82      77.269564      77.269564      132.76316    
>>> gel_strain = -3.1670881967518900169 %
    100000   0.99968232     0.19362477     0.35102279     0.54464756     0.13797189     792673.82      77.269564      77.269564      132.76316    
    106991   1.0008105      0.19135416     0.35142602     0.54278018     0.13513256     792673.82      77.269564      77.269564      132.76316    
Loop time of 1365.3 on 600 procs for 100000 steps with 1278441 atoms

Performance: 31641.408 tau/day, 73.244 timesteps/s, 93.638 Matom-step/s
99.3% CPU use with 600 MPI tasks x 1 OpenMP threads

MPI task timing breakdown:
Section |  min time  |  avg time  |  max time  |%varavg| %total
---------------------------------------------------------------
Pair    | 5.8595     | 92.08      | 230.71     | 594.8 |  6.74
Bond    | 2.3034     | 16.707     | 65.453     | 262.5 |  1.22
Neigh   | 691.4      | 713.16     | 731.29     |  36.0 | 52.23
Comm    | 74.135     | 228.28     | 453.95     | 629.9 | 16.72
Output  | 0.07312    | 0.22799    | 0.37609    |  20.0 |  0.02
Modify  | 117.28     | 277.12     | 498.24     | 671.6 | 20.30
Other   |            | 37.74      |            |       |  2.76

Nlocal:        2130.74 ave        6455 max           0 min
Histogram: 130 156 20 13 128 26 29 83 3 12
Nghost:          12741 ave       25811 max        5511 min
Histogram: 110 22 168 28 117 77 22 46 4 6
Neighs:          19224 ave       41024 max           0 min
Histogram: 150 2 106 72 0 1 43 54 46 126

Total # of neighbors = 11534397
Ave neighs/atom = 9.0222365
Ave special neighs/atom = 0.17960625
Neighbor list builds = 16446
Dangerous builds = 0
>>> 10% compression reached (or nsteps exhausted)
>>> Freezing piston and starting stress relaxation
  1 rigid bodies with 63221 atoms
Generated 0 of 15 mixed pair_coeff terms from geometric mixing rule
Last active /omp style is bond_style fene/omp
WARNING: More than one fix rigid (src/RIGID/fix_rigid.cpp:712)
WARNING: More than one fix rigid (src/RIGID/fix_rigid.cpp:712)
WARNING: More than one fix rigid (src/RIGID/fix_rigid.cpp:712)
Setting up Verlet run ...
  Unit style    : lj
  Current step  : 106991
  Time step     : 0.005
Per MPI rank memory allocation (min/avg/max) = 21.74 | 30.5 | 55.96 Mbytes
   Step     c_mobile_temp      PotEng         KinEng         TotEng         Press          Volume           Lx             Ly             Lz      
    106991   1.0008105      0.19135416     0.35121027     0.54256443     0.12375346     792673.82      77.269564      77.269564      132.76316    
>>> gel_strain = -3.1611924960720698685 %
    110000   0.99994662     0.19346456     0.35090712     0.54437169     0.027922661    792673.82      77.269564      77.269564      132.76316    
>>> gel_strain = -3.1079153437987501185 %
    120000   0.99868537     0.19225302     0.35046452     0.54271754    -0.088545597    792673.82      77.269564      77.269564      132.76316    
>>> gel_strain = -3.1424009046843899284 %
    130000   0.99999233     0.19256511     0.35092316     0.54348828     0.086273128    792673.82      77.269564      77.269564      132.76316    
>>> gel_strain = -3.1722450409364801871 %
    140000   0.99912693     0.19094078     0.35061947     0.54156025     0.038131898    792673.82      77.269564      77.269564      132.76316    
>>> gel_strain = -3.0385848227660599008 %
    150000   1.0014166      0.19565976     0.35142298     0.54708274     0.036168449    792673.82      77.269564      77.269564      132.76316    
>>> gel_strain = -3.0350725164271499246 %
    160000   0.99936666     0.19262754     0.3507036      0.54333114     0.040632906    792673.82      77.269564      77.269564      132.76316    
>>> gel_strain = -3.0337372641543498553 %
    170000   0.99969878     0.19251558     0.35082015     0.54333573     0.059570125    792673.82      77.269564      77.269564      132.76316    
>>> gel_strain = -2.9630387542011900059 %
    180000   0.99925128     0.19322444     0.35066311     0.54388755    -0.0053609055   792673.82      77.269564      77.269564      132.76316    
>>> gel_strain = -3.0609012351707001187 %
    190000   0.99844669     0.19172204     0.35038076     0.5421028      0.14290271     792673.82      77.269564      77.269564      132.76316    
>>> gel_strain = -2.9704729615140998966 %
    200000   0.9992178      0.19060773     0.35065136     0.54125909     0.1283965      792673.82      77.269564      77.269564      132.76316    
    206991   0.9983933      0.19342642     0.35036202     0.54378844    -0.090248703    792673.82      77.269564      77.269564      132.76316    
Loop time of 1049.84 on 600 procs for 100000 steps with 1278441 atoms

Performance: 41149.315 tau/day, 95.253 timesteps/s, 121.775 Matom-step/s
99.3% CPU use with 600 MPI tasks x 1 OpenMP threads

MPI task timing breakdown:
Section |  min time  |  avg time  |  max time  |%varavg| %total
---------------------------------------------------------------
Pair    | 0.24934    | 24.432     | 50.87      | 373.6 |  2.33
Bond    | 0.11216    | 0.62083    | 1.4483     |  41.7 |  0.06
Neigh   | 671.8      | 693.2      | 709.64     |  34.2 | 66.03
Comm    | 63.697     | 158.25     | 256.62     | 372.0 | 15.07
Output  | 0.041108   | 0.19605    | 0.34426    |  21.7 |  0.02
Modify  | 87.199     | 154.32     | 252.72     | 374.4 | 14.70
Other   |            | 18.82      |            |       |  1.79

Nlocal:        2130.74 ave        6453 max           0 min
Histogram: 130 156 20 13 128 26 29 83 3 12
Nghost:        12739.8 ave       25775 max        5482 min
Histogram: 110 22 168 26 119 77 21 47 4 6
Neighs:        19223.1 ave       41470 max           0 min
Histogram: 150 4 111 65 0 6 48 55 38 123

Total # of neighbors = 11533860
Ave neighs/atom = 9.0218164
Ave special neighs/atom = 0.17960625
Neighbor list builds = 16637
Dangerous builds = 0
========================================
Simulation complete
========================================
System init for write_data ...
Generated 0 of 15 mixed pair_coeff terms from geometric mixing rule
Last active /omp style is bond_style fene/omp
WARNING: More than one fix rigid (src/RIGID/fix_rigid.cpp:712)
WARNING: More than one fix rigid (src/RIGID/fix_rigid.cpp:712)
WARNING: More than one fix rigid (src/RIGID/fix_rigid.cpp:712)
WARNING: Not all mixed pair coeffs generated from mixing. Use write_data with 'pair ij' option to store all pair coeffs. (src/write_data.cpp:364)
Total wall time: 0:42:17
======================================
Running post-processing...
======================================
Generating convergence plot...
Generating stress profiles...
Found data file: ./final_flow_walled_slab_support_5beads_tall_4_1.0_1.05_15000000_1.0_1.05_100000.data
Stress profile saved to ./output_plots/walled_slab_support_5beads_tall_4_1.0_1.05_15000000_1.0_1.05_100000_stress.png
No volume data found for walled_slab_support_5beads_tall_4_1.0_1.05_15000000_1.0_1.05_100000, skipping volume fraction plots
Generating piston plots...
Read 40 position points, 40 velocity points
Piston plot saved to ./output_plots/walled_slab_support_5beads_tall_4_1.0_1.05_15000000_1.0_1.05_100000_piston.png

=== Piston Summary ===
Initial position: 121.8309
Final position:   95.4108
Total displacement: -26.4201
Steady-state velocity: 0.00e+00 Â± 0.00e+00
Generating computational efficiency plot...
Found data file: ./data_files/walled_slab_support_5beads_tall_4_1.0_1.05_15000000.data
Mobile atoms: 1152000
======================================
Done! Results are in: /jet/home/dpollard/Documents/lammps_runs/slab_with_flow_walled_slab_support_5beads_tall_4_1.0_1.05_15000000_1.0_1.05_20260214_133024
======================================
