======================================
Working directory: /jet/home/dpollard/Documents/lammps_runs/slab_with_flow_walled_slab_support_5beads_10x10x5_rho6_extra_padding43_1.5_1.4_10000000_1.5_1.4_20260109_202006
Trajectory directory (scratch): /ocean/projects/chm250028p/dpollard/lammps_trajectories/slab_with_flow_walled_slab_support_5beads_10x10x5_rho6_extra_padding43_1.5_1.4_10000000_1.5_1.4_20260109_202006
======================================
Running LAMMPS in slab_with_flow with:
  dataname=walled_slab_support_5beads_10x10x5_rho6_extra_padding43_1.5_1.4_10000000
  epsSS=1.5, epsSP=1.4
  nsteps=50000, oldsteps=0, totsteps=50000
SLURM tasks per node: 120
SLURM CPUs per task: 1
SLURM_GPUS_ON_NODE: 
GPUs allocated: 
Running CPU-only with 480 tasks
LAMMPS (22 Jul 2025)
  using 1 OpenMP thread(s) per MPI task
using multi-threaded neighbor list subroutines
Reading data file ...
  orthogonal box = (-6.8704069 -6.8704069 -4.3828458) to (93.870407 93.870407 59.882846)
  8 by 10 by 6 MPI processor grid
  reading atoms ...
  1323878 atoms
  scanning bonds ...
  3 = max bonds/atom
  orthogonal box = (-6.8704069 -6.8704069 -4.3828458) to (93.870407 93.870407 59.882846)
  8 by 10 by 6 MPI processor grid
  reading bonds ...
  143511 bonds
Finding 1-2 1-3 1-4 neighbors ...
  special bond factors lj:    0        0        0       
  special bond factors coul:  0        0        0       
     4 = max # of 1-2 neighbors
     4 = max # of 1-3 neighbors
     8 = max # of 1-4 neighbors
    12 = max # of special neighbors
  special bonds CPU = 0.134 seconds
  read_data CPU = 8.282 seconds
========================================
Flow simulation: walled_slab_support_5beads_10x10x5_rho6_extra_padding43_1.5_1.4_10000000
Interaction: epsSS=1.5, epsSP=1.4
Production steps: 50000
Piston force per bead: -0.1
========================================
126752 atoms in group polymer
310822 atoms in group solvent
109654 atoms in group support
109654 atoms in group piston
666996 atoms in group walls
437574 atoms in group mobile
656882 atoms in group gel_system
Finding 1-2 1-3 1-4 neighbors ...
  special bond factors lj:    0        1        1       
  special bond factors coul:  0        1        1       
     4 = max # of 1-2 neighbors
    12 = max # of special neighbors
  special bonds CPU = 0.044 seconds
  1 rigid bodies with 109654 atoms
  1 rigid bodies with 109654 atoms
  1 rigid bodies with 666996 atoms
========================================
Phase 1: Soft push to resolve solvent-piston overlaps
========================================
Generated 0 of 15 mixed pair_coeff terms from geometric mixing rule
Hybrid pair style last /omp style soft
Last active /omp style is bond_style fene/omp
WARNING: More than one fix rigid (src/RIGID/fix_rigid.cpp:712)
WARNING: More than one fix rigid (src/RIGID/fix_rigid.cpp:712)
WARNING: More than one fix rigid (src/RIGID/fix_rigid.cpp:712)
Neighbor list info ...
  update: every = 1 steps, delay = 0 steps, check = yes
  max neighbors/atom: 2000, page size: 100000
  master list distance cutoff = 2.8
  ghost atom cutoff = 5
  binsize = 1.4, bins = 72 72 46
  2 neighbor lists, perpetual/occasional/extra = 2 0 0
  (1) pair lj/cut, perpetual
      attributes: half, newton on, omp, cut 2.8
      pair build: half/bin/newton/omp
      stencil: half/bin/3d
      bin: standard
  (2) pair soft, perpetual, skip from (1)
      attributes: half, newton on, omp
      pair build: skip/omp
      stencil: none
      bin: none
Setting up Verlet run ...
  Unit style    : lj
  Current step  : 0
  Time step     : 0.005
Per MPI rank memory allocation (min/avg/max) = 16.79 | 23.64 | 39.16 Mbytes
   Step          Temp          PotEng         KinEng         TotEng         Press          Volume           Lx             Ly             Lz      
         0   0             -0.032144261    0             -0.032144261    0.021388102    652213.97      100.74081      100.74081      64.265692    
      1000   1.164402      -0.20198948     0.57730152     0.37531204     1.9842593      652213.97      100.74081      100.74081      64.265692    
Loop time of 28.5208 on 480 procs for 1000 steps with 1323878 atoms

Performance: 15146.846 tau/day, 35.062 timesteps/s, 46.418 Matom-step/s
99.3% CPU use with 480 MPI tasks x 1 OpenMP threads

MPI task timing breakdown:
Section |  min time  |  avg time  |  max time  |%varavg| %total
---------------------------------------------------------------
Pair    | 0.51878    | 1.1262     | 1.4224     |  18.7 |  3.95
Bond    | 0.003555   | 0.017833   | 0.042605   |   5.5 |  0.06
Neigh   | 23.78      | 24.264     | 24.712     |   4.9 | 85.08
Comm    | 1.0296     | 1.9421     | 2.9936     |  32.4 |  6.81
Output  | 0.00013081 | 0.00014201 | 0.00016346 |   0.0 |  0.00
Modify  | 0.6064     | 0.9804     | 1.5692     |  19.1 |  3.44
Other   |            | 0.19       |            |       |  0.67

Nlocal:        2758.08 ave        5678 max        1150 min
Histogram: 192 0 56 40 0 79 19 30 39 25
Nghost:        14309.8 ave       27886 max        7069 min
Histogram: 144 16 96 62 10 24 96 0 0 32
Neighs:        75040.9 ave      139759 max       22537 min
Histogram: 3 19 132 102 52 64 41 21 20 26

Total # of neighbors = 36019633
Ave neighs/atom = 27.207668
Ave special neighs/atom = 0.21680397
Neighbor list builds = 487
Dangerous builds = 0
Soft push complete - overlaps resolved
========================================
Phase 2: Switching to full LJ interactions
========================================
Generated 0 of 15 mixed pair_coeff terms from geometric mixing rule
Last active /omp style is bond_style fene/omp
WARNING: More than one fix rigid (src/RIGID/fix_rigid.cpp:712)
WARNING: More than one fix rigid (src/RIGID/fix_rigid.cpp:712)
WARNING: More than one fix rigid (src/RIGID/fix_rigid.cpp:712)
Neighbor list info ...
  update: every = 1 steps, delay = 0 steps, check = yes
  max neighbors/atom: 2000, page size: 100000
  master list distance cutoff = 2.8
  ghost atom cutoff = 5
  binsize = 1.4, bins = 72 72 46
  1 neighbor lists, perpetual/occasional/extra = 1 0 0
  (1) pair lj/cut/omp, perpetual
      attributes: half, newton on, omp
      pair build: half/bin/newton/omp
      stencil: half/bin/3d
      bin: standard
Setting up cg style minimization ...
  Unit style    : lj
  Current step  : 1000
Per MPI rank memory allocation (min/avg/max) = 18.78 | 26.13 | 43.38 Mbytes
   Step          Temp          PotEng         KinEng         TotEng         Press          Volume           Lx             Ly             Lz      
      1000   1.164402      -0.32345084     0.57730152     0.25385068     2.1839348      652213.97      100.74081      100.74081      64.265692    
      1532   1.164402      -0.98642653     0.57730152    -0.40912501    -2.1796894      652213.97      100.74081      100.74081      64.265692    
Loop time of 8.70246 on 480 procs for 532 steps with 1323878 atoms

99.3% CPU use with 480 MPI tasks x 1 OpenMP threads

Minimization stats:
  Stopping criterion = energy tolerance
  Energy initial, next-to-last, final = 
    -0.323450837283187 -0.986331535633045 -0.986426529548492
  Force two-norm initial, final = 33863.115 714.01306
  Force max component initial, final = 7715.4509 155.72193
  Final line search alpha, max atom move = 0.00050402017 0.078486995
  Iterations, force evaluations = 532 563

MPI task timing breakdown:
Section |  min time  |  avg time  |  max time  |%varavg| %total
---------------------------------------------------------------
Pair    | 0.047808   | 0.46416    | 1.071      |  33.2 |  5.33
Bond    | 0.00065585 | 0.0079663  | 0.014203   |   4.4 |  0.09
Neigh   | 6.6142     | 6.7474     | 6.8735     |   2.5 | 77.54
Comm    | 0.46842    | 1.0045     | 1.5779     |  28.6 | 11.54
Output  | 0          | 0          | 0          |   0.0 |  0.00
Modify  | 0.0056478  | 0.016831   | 0.036517   |   6.6 |  0.19
Other   |            | 0.4615     |            |       |  5.30

Nlocal:        2758.08 ave        5646 max        1265 min
Histogram: 192 0 60 36 0 80 36 12 39 25
Nghost:        14325.7 ave       27792 max        7426 min
Histogram: 144 16 96 72 0 24 96 0 0 32
Neighs:        38713.7 ave       64943 max        2182 min
Histogram: 30 51 63 42 6 24 20 27 151 66

Total # of neighbors = 18582575
Ave neighs/atom = 14.036471
Ave special neighs/atom = 0.21680397
Neighbor list builds = 148
Dangerous builds = 6
Generated 0 of 15 mixed pair_coeff terms from geometric mixing rule
Last active /omp style is bond_style fene/omp
WARNING: More than one fix rigid (src/RIGID/fix_rigid.cpp:712)
WARNING: More than one fix rigid (src/RIGID/fix_rigid.cpp:712)
WARNING: More than one fix rigid (src/RIGID/fix_rigid.cpp:712)
Setting up Verlet run ...
  Unit style    : lj
  Current step  : 1532
  Time step     : 0.005
Per MPI rank memory allocation (min/avg/max) = 17.66 | 24.38 | 40.01 Mbytes
   Step          Temp          PotEng         KinEng         TotEng         Press          Volume           Lx             Ly             Lz      
      1532   1.164402      -0.98642653     0.57730152    -0.40912501    -0.68720938     652213.97      100.74081      100.74081      64.265692    
WARNING: Lost atoms: original 1323878 current 1323877
For more information see https://docs.lammps.org/err0008 (src/thermo.cpp:532)
      5000   0             -0.96633167     0             -0.96633167    -2.0279122      652213.97      100.74081      100.74081      64.265692    
      6532   0             -0.98681539     0             -0.98681539    -2.0491999      652213.97      100.74081      100.74081      64.265692    
Loop time of 83.2979 on 480 procs for 5000 steps with 1323877 atoms

Performance: 25931.023 tau/day, 60.026 timesteps/s, 79.466 Matom-step/s
99.3% CPU use with 480 MPI tasks x 1 OpenMP threads

MPI task timing breakdown:
Section |  min time  |  avg time  |  max time  |%varavg| %total
---------------------------------------------------------------
Pair    | 0.15627    | 2.2653     | 3.3486     |  62.2 |  2.72
Bond    | 0.0050587  | 0.024491   | 0.042852   |   6.7 |  0.03
Neigh   | 67.58      | 68.976     | 70.327     |   8.3 | 82.81
Comm    | 4.0477     | 8.1458     | 12.106     |  71.0 |  9.78
Output  | 0.00025613 | 0.00028063 | 0.0003373  |   0.0 |  0.00
Modify  | 1.8298     | 3.3206     | 5.3502     |  46.2 |  3.99
Other   |            | 0.5653     |            |       |  0.68

Nlocal:        2758.08 ave        5720 max        1242 min
Histogram: 192 0 65 31 0 80 31 17 40 24
Nghost:        14307.9 ave       28225 max        7469 min
Histogram: 144 16 96 72 0 24 96 0 0 32
Neighs:        38117.2 ave       54907 max        1549 min
Histogram: 15 14 20 46 78 22 24 21 26 214

Total # of neighbors = 18296239
Ave neighs/atom = 13.820196
Ave special neighs/atom = 0.21680413
Neighbor list builds = 1491
Dangerous builds = 1060
========================================
Phase 3: Production flow with piston forcing
========================================
  1 rigid bodies with 109654 atoms
Generated 0 of 15 mixed pair_coeff terms from geometric mixing rule
Last active /omp style is bond_style fene/omp
WARNING: More than one fix rigid (src/RIGID/fix_rigid.cpp:712)
WARNING: More than one fix rigid (src/RIGID/fix_rigid.cpp:712)
WARNING: More than one fix rigid (src/RIGID/fix_rigid.cpp:712)
Setting up Verlet run ...
  Unit style    : lj
  Current step  : 6532
  Time step     : 0.005
Per MPI rank memory allocation (min/avg/max) = 20.68 | 29.32 | 49.03 Mbytes
   Step          Temp          PotEng         KinEng         TotEng         Press          Volume           Lx             Ly             Lz      
      6532   0             -0.98681539     0             -0.98681539    -2.0492208      652213.97      100.74081      100.74081      64.265692    
     10000   0.64523588    -0.86582326     0.31990248    -0.54592077     0.36199051     652213.97      100.74081      100.74081      64.265692    
     15000   0.99693016    -0.59568063     0.49426953    -0.1014111      0.77754675     652213.97      100.74081      100.74081      64.265692    
     20000   0.99831133    -0.60822412     0.4949543     -0.11326982     0.35744011     652213.97      100.74081      100.74081      64.265692    
     25000   0.99964701    -0.6121685      0.49561652    -0.11655199     0.45169458     652213.97      100.74081      100.74081      64.265692    
     30000   0.99912563    -0.61662569     0.49535802    -0.12126767     0.42928651     652213.97      100.74081      100.74081      64.265692    
     35000   1.0003104     -0.61929455     0.49594544    -0.12334911     0.53090119     652213.97      100.74081      100.74081      64.265692    
     40000   1.0025366     -0.62211778     0.49704916    -0.12506862     0.33632523     652213.97      100.74081      100.74081      64.265692    
     45000   0.99952358    -0.62462645     0.49555532    -0.12907113     0.078019294    652213.97      100.74081      100.74081      64.265692    
     50000   1.000173      -0.62420448     0.49587728    -0.1283272      0.36060643     652213.97      100.74081      100.74081      64.265692    
     55000   0.99977274    -0.62801606     0.49567885    -0.13233721     0.50243419     652213.97      100.74081      100.74081      64.265692    
     56532   1.0006023     -0.62872553     0.49609012    -0.13263541     0.35040747     652213.97      100.74081      100.74081      64.265692    
Loop time of 516.051 on 480 procs for 50000 steps with 1323877 atoms

Performance: 41856.360 tau/day, 96.890 timesteps/s, 128.270 Matom-step/s
99.3% CPU use with 480 MPI tasks x 1 OpenMP threads

MPI task timing breakdown:
Section |  min time  |  avg time  |  max time  |%varavg| %total
---------------------------------------------------------------
Pair    | 5.3683     | 24.119     | 34.035     | 164.3 |  4.67
Bond    | 0.091432   | 0.31713    | 0.50139    |  20.0 |  0.06
Neigh   | 366.14     | 373.2      | 380.62     |  20.8 | 72.32
Comm    | 36.046     | 72.449     | 107.37     | 202.6 | 14.04
Output  | 0.020938   | 0.16736    | 0.3116     |  19.3 |  0.03
Modify  | 24.523     | 39.857     | 61.196     | 144.1 |  7.72
Other   |            | 5.937      |            |       |  1.15

Nlocal:        2758.08 ave        5732 max        1228 min
Histogram: 192 0 50 46 0 77 25 26 40 24
Nghost:        14304.5 ave       28154 max        7379 min
Histogram: 108 84 72 41 51 16 60 20 12 16
Neighs:        39194.7 ave       54305 max        9364 min
Histogram: 9 23 21 36 103 48 0 0 6 234

Total # of neighbors = 18813460
Ave neighs/atom = 14.210882
Ave special neighs/atom = 0.21680413
Neighbor list builds = 8618
Dangerous builds = 0
========================================
Flow simulation complete
========================================
System init for write_data ...
Generated 0 of 15 mixed pair_coeff terms from geometric mixing rule
Last active /omp style is bond_style fene/omp
WARNING: More than one fix rigid (src/RIGID/fix_rigid.cpp:712)
WARNING: More than one fix rigid (src/RIGID/fix_rigid.cpp:712)
WARNING: More than one fix rigid (src/RIGID/fix_rigid.cpp:712)
WARNING: Not all mixed pair coeffs generated from mixing. Use write_data with 'pair ij' option to store all pair coeffs. (src/write_data.cpp:364)
Total wall time: 0:10:48
======================================
Running post-processing...
======================================
Generating convergence plot...
Plot saved to ./output_plots/convergence_plots/walled_slab_support_5beads_10x10x5_rho6_extra_padding43_1.5_1.4_10000000_1.5_1.4_50000_convergence.png
Generating stress profiles...
Warning: Could not find data file (tried walled_slab_support_5beads_10x10x5_rho6_extra_padding43.data and walled_slab_support_5beads_10x10x5_rho6_extra_padding43_1.5_1.4_10000000_1.5_1.4_50000.data), using default box dimensions
Stress profile saved to ./output_plots/walled_slab_support_5beads_10x10x5_rho6_extra_padding43_1.5_1.4_10000000_1.5_1.4_50000_stress.png
No volume data found for walled_slab_support_5beads_10x10x5_rho6_extra_padding43_1.5_1.4_10000000_1.5_1.4_50000, skipping volume fraction plots
Generating piston plots...
Read 5 position points, 5 velocity points
Piston plot saved to ./output_plots/walled_slab_support_5beads_10x10x5_rho6_extra_padding43_1.5_1.4_10000000_1.5_1.4_50000_piston.png

=== Piston Summary ===
Initial position: 55.0020
Final position:   52.8543
Total displacement: -2.1477
Generating computational efficiency plot...
Found data file: ./data_files/walled_slab_support_5beads_10x10x5_rho6_extra_padding43_1.5_1.4_10000000.data
Mobile atoms: 1104570
Entry 'walled_slab_support_5beads_10x10x5_rho6_extra_padding43_1.5_1.4_10000000_1.5_1.4_50000' already exists in tracking file, skipping.
Tracking info written to /jet/home/dpollard/Documents/lammps_work/tracking.txt
Saved /jet/home/dpollard/Documents/lammps_work/time_vs_atoms.png
Saved /jet/home/dpollard/Documents/lammps_work/time_vs_timesteps.png
======================================
Done! Results are in: /jet/home/dpollard/Documents/lammps_runs/slab_with_flow_walled_slab_support_5beads_10x10x5_rho6_extra_padding43_1.5_1.4_10000000_1.5_1.4_20260109_202006
======================================
