======================================
Working directory: /jet/home/dpollard/Documents/lammps_runs/slab_with_flow_walled_slab_support_5beads_10x10x5_rho6_extra_padding43_1.5_1.4_10000000_1.5_1.4_20260116_174358
Trajectory directory (scratch): /ocean/projects/chm250028p/dpollard/lammps_trajectories/slab_with_flow_walled_slab_support_5beads_10x10x5_rho6_extra_padding43_1.5_1.4_10000000_1.5_1.4_20260116_174358
======================================
Running LAMMPS in slab_with_flow with:
  dataname=walled_slab_support_5beads_10x10x5_rho6_extra_padding43_1.5_1.4_10000000
  epsSS=1.5, epsSP=1.4
  nsteps=50000, oldsteps=0, totsteps=50000
SLURM tasks per node: 120
SLURM CPUs per task: 1
SLURM_GPUS_ON_NODE: 
GPUs allocated: 
Running CPU-only with 600 tasks
LAMMPS (22 Jul 2025)
  using 1 OpenMP thread(s) per MPI task
using multi-threaded neighbor list subroutines
Reading data file ...
  orthogonal box = (-6.8704069 -6.8704069 -4.3828458) to (93.870407 93.870407 59.882846)
  10 by 10 by 6 MPI processor grid
  reading atoms ...
  1323878 atoms
  scanning bonds ...
  3 = max bonds/atom
  orthogonal box = (-6.8704069 -6.8704069 -4.3828458) to (93.870407 93.870407 59.882846)
  10 by 10 by 6 MPI processor grid
  reading bonds ...
  143511 bonds
Finding 1-2 1-3 1-4 neighbors ...
  special bond factors lj:    0        0        0       
  special bond factors coul:  0        0        0       
     4 = max # of 1-2 neighbors
     4 = max # of 1-3 neighbors
     8 = max # of 1-4 neighbors
    12 = max # of special neighbors
  special bonds CPU = 0.150 seconds
  read_data CPU = 8.827 seconds
========================================
Flow simulation: walled_slab_support_5beads_10x10x5_rho6_extra_padding43_1.5_1.4_10000000
Interaction: epsSS=1.5, epsSP=1.4
Production steps: 50000
Piston force per bead: -0.1
========================================
126752 atoms in group polymer
310822 atoms in group solvent
109654 atoms in group support
109654 atoms in group piston
666996 atoms in group walls
437574 atoms in group mobile
656882 atoms in group gel_system
Finding 1-2 1-3 1-4 neighbors ...
  special bond factors lj:    0        1        1       
  special bond factors coul:  0        1        1       
     4 = max # of 1-2 neighbors
    12 = max # of special neighbors
  special bonds CPU = 0.057 seconds
  1 rigid bodies with 109654 atoms
  1 rigid bodies with 109654 atoms
  1 rigid bodies with 666996 atoms
========================================
Phase 1: Soft push to resolve solvent-piston overlaps
========================================
Generated 0 of 15 mixed pair_coeff terms from geometric mixing rule
Hybrid pair style last /omp style soft
Last active /omp style is bond_style fene/omp
WARNING: More than one fix rigid (src/RIGID/fix_rigid.cpp:712)
WARNING: More than one fix rigid (src/RIGID/fix_rigid.cpp:712)
WARNING: More than one fix rigid (src/RIGID/fix_rigid.cpp:712)
Neighbor list info ...
  update: every = 1 steps, delay = 0 steps, check = yes
  max neighbors/atom: 2000, page size: 100000
  master list distance cutoff = 2.8
  ghost atom cutoff = 5
  binsize = 1.4, bins = 72 72 46
  2 neighbor lists, perpetual/occasional/extra = 2 0 0
  (1) pair lj/cut, perpetual
      attributes: half, newton on, omp, cut 2.8
      pair build: half/bin/newton/omp
      stencil: half/bin/3d
      bin: standard
  (2) pair soft, perpetual, skip from (1)
      attributes: half, newton on, omp
      pair build: skip/omp
      stencil: none
      bin: none
Setting up Verlet run ...
  Unit style    : lj
  Current step  : 0
  Time step     : 0.005
Per MPI rank memory allocation (min/avg/max) = 16.74 | 22.38 | 38.8 Mbytes
   Step          Temp          PotEng         KinEng         TotEng         Press          Volume           Lx             Ly             Lz      
         0   0             -0.032144261    0             -0.032144261    0.021388102    652213.97      100.74081      100.74081      64.265692    
      1000   1.1644688     -0.20202138     0.57733465     0.37531327     2.009573       652213.97      100.74081      100.74081      64.265692    
Loop time of 24.6139 on 600 procs for 1000 steps with 1323878 atoms

Performance: 17551.045 tau/day, 40.627 timesteps/s, 53.786 Matom-step/s
99.2% CPU use with 600 MPI tasks x 1 OpenMP threads

MPI task timing breakdown:
Section |  min time  |  avg time  |  max time  |%varavg| %total
---------------------------------------------------------------
Pair    | 0.35638    | 0.90321    | 1.5965     |  18.7 |  3.67
Bond    | 0.0016527  | 0.014874   | 0.030929   |   5.4 |  0.06
Neigh   | 19.012     | 19.798     | 20.337     |   7.3 | 80.43
Comm    | 1.0039     | 2.2116     | 3.518      |  40.4 |  8.99
Output  | 0.0032972  | 0.026218   | 0.046785   |   8.0 |  0.11
Modify  | 0.83784    | 1.4587     | 1.9828     |  20.9 |  5.93
Other   |            | 0.2017     |            |       |  0.82

Nlocal:        2206.46 ave        4537 max         915 min
Histogram: 256 0 79 49 0 16 72 56 8 64
Nghost:        14882.3 ave       35693 max        6630 min
Histogram: 144 112 72 112 72 12 52 16 0 8
Neighs:        60032.5 ave      112611 max       13157 min
Histogram: 4 12 126 151 68 87 52 40 30 30

Total # of neighbors = 36019517
Ave neighs/atom = 27.20758
Ave special neighs/atom = 0.21680397
Neighbor list builds = 487
Dangerous builds = 0
Soft push complete - overlaps resolved
========================================
Phase 2: Switching to full LJ interactions
========================================
Generated 0 of 15 mixed pair_coeff terms from geometric mixing rule
Last active /omp style is bond_style fene/omp
WARNING: More than one fix rigid (src/RIGID/fix_rigid.cpp:712)
WARNING: More than one fix rigid (src/RIGID/fix_rigid.cpp:712)
WARNING: More than one fix rigid (src/RIGID/fix_rigid.cpp:712)
Neighbor list info ...
  update: every = 1 steps, delay = 0 steps, check = yes
  max neighbors/atom: 2000, page size: 100000
  master list distance cutoff = 2.8
  ghost atom cutoff = 5
  binsize = 1.4, bins = 72 72 46
  1 neighbor lists, perpetual/occasional/extra = 1 0 0
  (1) pair lj/cut/omp, perpetual
      attributes: half, newton on, omp
      pair build: half/bin/newton/omp
      stencil: half/bin/3d
      bin: standard
Setting up cg style minimization ...
  Unit style    : lj
  Current step  : 1000
Per MPI rank memory allocation (min/avg/max) = 18.71 | 24.7 | 43.5 Mbytes
   Step          Temp          PotEng         KinEng         TotEng         Press          Volume           Lx             Ly             Lz      
      1000   1.1644688     -0.32364767     0.57733465     0.25368698     2.2095641      652213.97      100.74081      100.74081      64.265692    
      1469   1.1644688     -0.96380192     0.57733465    -0.38646727    -2.1865475      652213.97      100.74081      100.74081      64.265692    
Loop time of 6.44256 on 600 procs for 469 steps with 1323878 atoms

99.2% CPU use with 600 MPI tasks x 1 OpenMP threads

Minimization stats:
  Stopping criterion = energy tolerance
  Energy initial, next-to-last, final = 
    -0.323647673941844 -0.963714876205924 -0.963801919670361
  Force two-norm initial, final = 33798.181 832.39277
  Force max component initial, final = 7715.4435 279.11085
  Final line search alpha, max atom move = 0.0005813624 0.16226455
  Iterations, force evaluations = 469 499

MPI task timing breakdown:
Section |  min time  |  avg time  |  max time  |%varavg| %total
---------------------------------------------------------------
Pair    | 0.022768   | 0.32595    | 0.74823    |  29.3 |  5.06
Bond    | 0.00044433 | 0.0058074  | 0.014874   |   4.0 |  0.09
Neigh   | 4.3478     | 4.5563     | 4.6948     |   4.0 | 70.72
Comm    | 0.436      | 1.0033     | 1.6585     |  31.1 | 15.57
Output  | 0          | 0          | 0          |   0.0 |  0.00
Modify  | 0.0049307  | 0.017194   | 0.052768   |   7.7 |  0.27
Other   |            | 0.534      |            |       |  8.29

Nlocal:        2206.46 ave        4511 max        1008 min
Histogram: 256 0 89 39 2 14 105 23 8 64
Nghost:        14873.8 ave       35558 max        6903 min
Histogram: 156 100 72 121 63 13 51 16 0 8
Neighs:        30953.3 ave       52257 max        1031 min
Histogram: 43 90 66 17 0 36 20 55 195 78

Total # of neighbors = 18571980
Ave neighs/atom = 14.028468
Ave special neighs/atom = 0.21680397
Neighbor list builds = 122
Dangerous builds = 4
Generated 0 of 15 mixed pair_coeff terms from geometric mixing rule
Last active /omp style is bond_style fene/omp
WARNING: More than one fix rigid (src/RIGID/fix_rigid.cpp:712)
WARNING: More than one fix rigid (src/RIGID/fix_rigid.cpp:712)
WARNING: More than one fix rigid (src/RIGID/fix_rigid.cpp:712)
Setting up Verlet run ...
  Unit style    : lj
  Current step  : 1469
  Time step     : 0.005
Per MPI rank memory allocation (min/avg/max) = 17.59 | 23.05 | 40.13 Mbytes
   Step          Temp          PotEng         KinEng         TotEng         Press          Volume           Lx             Ly             Lz      
      1469   1.1644688     -0.96380192     0.57733465    -0.38646727    -0.69138106     652213.97      100.74081      100.74081      64.265692    
WARNING: Lost atoms: original 1323878 current 1323877
For more information see https://docs.lammps.org/err0008 (src/thermo.cpp:532)
      5000   8.5669515e-57 -0.96195045     4.2474317e-57 -0.96195045    -2.1487689      652213.97      100.74081      100.74081      64.265692    
      6469   4.4969986e-57 -0.97669797     2.2295789e-57 -0.97669797    -2.1475353      652213.97      100.74081      100.74081      64.265692    
Loop time of 50.8533 on 600 procs for 5000 steps with 1323877 atoms

Performance: 42475.085 tau/day, 98.322 timesteps/s, 130.166 Matom-step/s
99.3% CPU use with 600 MPI tasks x 1 OpenMP threads

MPI task timing breakdown:
Section |  min time  |  avg time  |  max time  |%varavg| %total
---------------------------------------------------------------
Pair    | 0.095616   | 1.799      | 2.7359     |  62.7 |  3.54
Bond    | 0.0038916  | 0.020617   | 0.039234   |   6.4 |  0.04
Neigh   | 33.244     | 34.703     | 35.72      |  10.0 | 68.24
Comm    | 3.8573     | 9.1476     | 14.292     |  84.7 | 17.99
Output  | 0.016231   | 0.1359     | 0.24003    |  18.3 |  0.27
Modify  | 1.8662     | 4.4248     | 7.8029     |  71.4 |  8.70
Other   |            | 0.6224     |            |       |  1.22

Nlocal:        2206.46 ave        4585 max         993 min
Histogram: 256 0 96 32 3 13 113 16 7 64
Nghost:        14877.1 ave       35531 max        6821 min
Histogram: 150 106 72 104 80 13 51 16 0 8
Neighs:        30492.5 ave       45100 max         397 min
Histogram: 29 23 43 81 39 8 22 39 61 255

Total # of neighbors = 18295497
Ave neighs/atom = 13.819635
Ave special neighs/atom = 0.21680413
Neighbor list builds = 911
Dangerous builds = 321
========================================
Phase 3: Production flow with piston forcing
========================================
  1 rigid bodies with 109654 atoms
Generated 0 of 15 mixed pair_coeff terms from geometric mixing rule
Last active /omp style is bond_style fene/omp
WARNING: More than one fix rigid (src/RIGID/fix_rigid.cpp:712)
WARNING: More than one fix rigid (src/RIGID/fix_rigid.cpp:712)
WARNING: More than one fix rigid (src/RIGID/fix_rigid.cpp:712)
Setting up Verlet run ...
  Unit style    : lj
  Current step  : 6469
  Time step     : 0.005
Per MPI rank memory allocation (min/avg/max) = 16.24 | 21.85 | 38.28 Mbytes
   Step          Temp          PotEng         KinEng         TotEng         Press          Volume           Lx             Ly             Lz      
      6469   4.4970089e-57 -0.97669797     2.2295789e-57 -0.97669797    -2.1477869      652213.97      100.74081      100.74081      64.265692    
Loop time of 1.33978e-05 on 600 procs for 0 steps with 1323877 atoms

109.0% CPU use with 600 MPI tasks x 1 OpenMP threads

MPI task timing breakdown:
Section |  min time  |  avg time  |  max time  |%varavg| %total
---------------------------------------------------------------
Pair    | 0          | 0          | 0          |   0.0 |  0.00
Bond    | 0          | 0          | 0          |   0.0 |  0.00
Neigh   | 0          | 0          | 0          |   0.0 |  0.00
Comm    | 0          | 0          | 0          |   0.0 |  0.00
Output  | 0          | 0          | 0          |   0.0 |  0.00
Modify  | 0          | 0          | 0          |   0.0 |  0.00
Other   |            | 1.34e-05   |            |       |100.00

Nlocal:        2206.46 ave        4582 max         994 min
Histogram: 256 0 96 32 3 13 113 16 7 64
Nghost:          14877 ave       35525 max        6821 min
Histogram: 150 106 72 104 80 13 51 16 0 8
Neighs:        30494.5 ave       44975 max         383 min
Histogram: 29 21 44 80 41 7 21 39 58 260

Total # of neighbors = 18296672
Ave neighs/atom = 13.820523
Ave special neighs/atom = 0.21680413
Neighbor list builds = 0
Dangerous builds = 0
Rg_xx = 592.536132069853
Rg_yy = 602.360331443436
Rg_zz = 248.31998260807
hw_x = 39.4341454199799
hw_y = 39.7597089254959
hw_z = 25.5282385282773
Generated 0 of 15 mixed pair_coeff terms from geometric mixing rule
Last active /omp style is bond_style fene/omp
WARNING: More than one fix rigid (src/RIGID/fix_rigid.cpp:712)
WARNING: More than one fix rigid (src/RIGID/fix_rigid.cpp:712)
WARNING: More than one fix rigid (src/RIGID/fix_rigid.cpp:712)
Setting up Verlet run ...
  Unit style    : lj
  Current step  : 6469
  Time step     : 0.005
Per MPI rank memory allocation (min/avg/max) = 19.25 | 26.35 | 47.29 Mbytes
   Step          Temp          PotEng         KinEng         TotEng         Press          Volume           Lx             Ly             Lz      
      6469   4.4970089e-57 -0.97669797     2.2295789e-57 -0.97669797    -2.1477869      652213.97      100.74081      100.74081      64.265692    
     10000   0.62441098    -0.88236142     0.30957768    -0.57278375     0.35413995     652213.97      100.74081      100.74081      64.265692    
     15000   0.99975241    -0.59251713     0.49566877    -0.096848358    0.2663422      652213.97      100.74081      100.74081      64.265692    
     20000   0.99915344    -0.60167387     0.49537181    -0.10630206     0.4787021      652213.97      100.74081      100.74081      64.265692    
     25000   1.0012066     -0.60724851     0.49638976    -0.11085874     0.41465137     652213.97      100.74081      100.74081      64.265692    
     30000   0.99866985    -0.6133536      0.49513205    -0.11822156     0.29407759     652213.97      100.74081      100.74081      64.265692    
     35000   0.99965403    -0.61600234     0.49562       -0.12038234     0.62184938     652213.97      100.74081      100.74081      64.265692    
     40000   0.99889681    -0.61543636     0.49524457    -0.12019179     0.34813148     652213.97      100.74081      100.74081      64.265692    
     45000   0.99961531    -0.61866491     0.4956008     -0.12306411     0.5283286      652213.97      100.74081      100.74081      64.265692    
     50000   1.0001852     -0.62092241     0.49588337    -0.12503904     0.64451702     652213.97      100.74081      100.74081      64.265692    
     55000   1.0006439     -0.61961727     0.49611079    -0.12350648     0.23891186     652213.97      100.74081      100.74081      64.265692    
     56469   1.0004335     -0.62107235     0.49600647    -0.12506588     0.3596296      652213.97      100.74081      100.74081      64.265692    
Loop time of 521.285 on 600 procs for 50000 steps with 1323877 atoms

Performance: 41436.038 tau/day, 95.917 timesteps/s, 126.982 Matom-step/s
99.2% CPU use with 600 MPI tasks x 1 OpenMP threads

MPI task timing breakdown:
Section |  min time  |  avg time  |  max time  |%varavg| %total
---------------------------------------------------------------
Pair    | 3.1307     | 19.272     | 27.031     | 156.4 |  3.70
Bond    | 0.077895   | 0.28486    | 0.5475     |  19.2 |  0.05
Neigh   | 336.59     | 353.92     | 366.3      |  42.1 | 67.89
Comm    | 40.107     | 90.523     | 139.76     | 264.1 | 17.37
Output  | 0.017741   | 0.18206    | 0.31975    |  23.6 |  0.03
Modify  | 25.337     | 51.587     | 82.026     | 198.7 |  9.90
Other   |            | 5.52       |            |       |  1.06

Nlocal:        2206.46 ave        4600 max         977 min
Histogram: 256 0 72 56 0 16 104 24 8 64
Nghost:        14884.2 ave       36493 max        6652 min
Histogram: 108 156 68 124 64 30 26 12 8 4
Neighs:        31322.3 ave       43453 max        5943 min
Histogram: 17 19 22 113 45 39 25 0 17 303

Total # of neighbors = 18793393
Ave neighs/atom = 14.195724
Ave special neighs/atom = 0.21680413
Neighbor list builds = 10122
Dangerous builds = 0
========================================
Flow simulation complete
========================================
System init for write_data ...
Generated 0 of 15 mixed pair_coeff terms from geometric mixing rule
Last active /omp style is bond_style fene/omp
WARNING: More than one fix rigid (src/RIGID/fix_rigid.cpp:712)
WARNING: More than one fix rigid (src/RIGID/fix_rigid.cpp:712)
WARNING: More than one fix rigid (src/RIGID/fix_rigid.cpp:712)
WARNING: Not all mixed pair coeffs generated from mixing. Use write_data with 'pair ij' option to store all pair coeffs. (src/write_data.cpp:364)
Total wall time: 0:10:15
======================================
Running post-processing...
======================================
Generating convergence plot...
Plot saved to ./output_plots/convergence_plots/walled_slab_support_5beads_10x10x5_rho6_extra_padding43_1.5_1.4_10000000_1.5_1.4_50000_convergence.png
Generating stress profiles...
Warning: Could not find data file (tried walled_slab_support_5beads_10x10x5_rho6_extra_padding43.data and walled_slab_support_5beads_10x10x5_rho6_extra_padding43_1.5_1.4_10000000_1.5_1.4_50000.data), using default box dimensions
Stress profile saved to ./output_plots/walled_slab_support_5beads_10x10x5_rho6_extra_padding43_1.5_1.4_10000000_1.5_1.4_50000_stress.png
No volume data found for walled_slab_support_5beads_10x10x5_rho6_extra_padding43_1.5_1.4_10000000_1.5_1.4_50000, skipping volume fraction plots
Generating piston plots...
Read 5 position points, 5 velocity points
Piston plot saved to ./output_plots/walled_slab_support_5beads_10x10x5_rho6_extra_padding43_1.5_1.4_10000000_1.5_1.4_50000_piston.png

=== Piston Summary ===
Initial position: 54.5095
Final position:   52.8159
Total displacement: -1.6936
Generating computational efficiency plot...
Found data file: ./data_files/walled_slab_support_5beads_10x10x5_rho6_extra_padding43_1.5_1.4_10000000.data
Mobile atoms: 1104570
Entry 'walled_slab_support_5beads_10x10x5_rho6_extra_padding43_1.5_1.4_10000000_1.5_1.4_50000' already exists in tracking file, skipping.
Tracking info written to /jet/home/dpollard/Documents/lammps_work/tracking.txt
Saved /jet/home/dpollard/Documents/lammps_work/time_vs_atoms.png
Saved /jet/home/dpollard/Documents/lammps_work/time_vs_timesteps.png
======================================
Done! Results are in: /jet/home/dpollard/Documents/lammps_runs/slab_with_flow_walled_slab_support_5beads_10x10x5_rho6_extra_padding43_1.5_1.4_10000000_1.5_1.4_20260116_174358
======================================
