======================================
Working directory: /jet/home/dpollard/Documents/lammps_runs/slab_with_flow_final_config_slab_support_5beads_10x10x5_rho6_extra_padding43_1.5_1.4_10000000_1.5_1.4_20260107_201557
Trajectory directory (scratch): /ocean/projects/chm250028p/dpollard/lammps_trajectories/slab_with_flow_final_config_slab_support_5beads_10x10x5_rho6_extra_padding43_1.5_1.4_10000000_1.5_1.4_20260107_201557
======================================
Running LAMMPS in slab_with_flow with:
  dataname=final_config_slab_support_5beads_10x10x5_rho6_extra_padding43_1.5_1.4_10000000
  epsSS=1.5, epsSP=1.4
  nsteps=100000, oldsteps=0, totsteps=100000
SLURM tasks per node: 120
SLURM CPUs per task: 1
SLURM_GPUS_ON_NODE: 
GPUs allocated: 
Running CPU-only with 480 tasks
LAMMPS (22 Jul 2025)
  using 1 OpenMP thread(s) per MPI task
using multi-threaded neighbor list subroutines
Reading data file ...
  orthogonal box = (-6.8704069 -6.8704069 -4.3828458) to (93.870407 93.870407 59.882846)
  8 by 10 by 6 MPI processor grid
WARNING: Pair style lj/cut/omp in data file differs from currently defined pair style zero (src/read_data.cpp:811)
  reading atoms ...
  766478 atoms
  reading velocities ...
  766478 velocities
  scanning bonds ...
  3 = max bonds/atom
  orthogonal box = (-6.8704069 -6.8704069 -4.3828458) to (93.870407 93.870407 59.882846)
  8 by 10 by 6 MPI processor grid
  reading bonds ...
  144000 bonds
Finding 1-2 1-3 1-4 neighbors ...
  special bond factors lj:    0        0        0       
  special bond factors coul:  0        0        0       
     4 = max # of 1-2 neighbors
     4 = max # of 1-3 neighbors
     8 = max # of 1-4 neighbors
    12 = max # of special neighbors
  special bonds CPU = 0.103 seconds
  read_data CPU = 4.721 seconds
========================================
Flow simulation: final_config_slab_support_5beads_10x10x5_rho6_extra_padding43_1.5_1.4_10000000
Interaction: epsSS=1.5, epsSP=1.4
Production steps: 100000
Piston force per bead: -0.001
========================================
127091 atoms in group polymer
420079 atoms in group solvent
109654 atoms in group support
109654 atoms in group piston
547170 atoms in group mobile
346399 atoms in group gel_system
Finding 1-2 1-3 1-4 neighbors ...
  special bond factors lj:    0        1        1       
  special bond factors coul:  0        1        1       
     4 = max # of 1-2 neighbors
    12 = max # of special neighbors
  special bonds CPU = 0.015 seconds
  1 rigid bodies with 109654 atoms
  1 rigid bodies with 109654 atoms
========================================
Phase 1: Soft push to resolve solvent-piston overlaps
========================================
Generated 0 of 10 mixed pair_coeff terms from geometric mixing rule
Hybrid pair style last /omp style soft
Last active /omp style is bond_style fene/omp
WARNING: More than one fix rigid (src/RIGID/fix_rigid.cpp:712)
WARNING: More than one fix rigid (src/RIGID/fix_rigid.cpp:712)
Neighbor list info ...
  update: every = 1 steps, delay = 0 steps, check = yes
  max neighbors/atom: 2000, page size: 100000
  master list distance cutoff = 2.8
  ghost atom cutoff = 5
  binsize = 1.4, bins = 72 72 46
  2 neighbor lists, perpetual/occasional/extra = 2 0 0
  (1) pair lj/cut, perpetual
      attributes: half, newton on, omp, cut 2.8
      pair build: half/bin/newton/omp
      stencil: half/bin/3d
      bin: standard
  (2) pair soft, perpetual, skip from (1)
      attributes: half, newton on, omp
      pair build: skip/omp
      stencil: none
      bin: none
Setting up Verlet run ...
  Unit style    : lj
  Current step  : 0
  Time step     : 0.005
Per MPI rank memory allocation (min/avg/max) = 13.39 | 17.12 | 24.87 Mbytes
   Step          Temp          PotEng         KinEng         TotEng         Press          Volume           Lx             Ly             Lz      
         0   1.1850382     -1.2513347      1.2689619      0.017627139    1.0000028      652213.97      100.74081      100.74081      64.265692    
      1000   1.1960928     -1.3595086      1.2807993     -0.078709288    2.143794       652213.97      100.74081      100.74081      64.265692    
Loop time of 6.59638 on 480 procs for 1000 steps with 766478 atoms

Performance: 65490.465 tau/day, 151.598 timesteps/s, 116.197 Matom-step/s
99.0% CPU use with 480 MPI tasks x 1 OpenMP threads

MPI task timing breakdown:
Section |  min time  |  avg time  |  max time  |%varavg| %total
---------------------------------------------------------------
Pair    | 0.91803    | 1.2411     | 2.1441     |  26.2 | 18.82
Bond    | 0.002563   | 0.015667   | 0.035149   |   5.3 |  0.24
Neigh   | 2.7388     | 2.8034     | 2.9291     |   2.5 | 42.50
Comm    | 0.81229    | 1.3814     | 2.1398     |  26.3 | 20.94
Output  | 0.0023365  | 0.0023511  | 0.0023752  |   0.0 |  0.04
Modify  | 0.49367    | 1.0514     | 1.712      |  34.3 | 15.94
Other   |            | 0.101      |            |       |  1.53

Nlocal:        1596.83 ave        2500 max        1128 min
Histogram: 293 27 0 0 0 0 0 15 65 80
Nghost:        9543.76 ave       14509 max        6743 min
Histogram: 320 0 0 0 0 0 0 0 0 160
Neighs:         141591 ave      377775 max       41038 min
Histogram: 320 0 0 0 0 0 0 80 0 80

Total # of neighbors = 67963472
Ave neighs/atom = 88.669827
Ave special neighs/atom = 0.37574464
Neighbor list builds = 210
Dangerous builds = 0
Soft push complete - overlaps resolved
========================================
Phase 2: Switching to full LJ interactions
========================================
Generated 0 of 10 mixed pair_coeff terms from geometric mixing rule
Last active /omp style is bond_style fene/omp
WARNING: More than one fix rigid (src/RIGID/fix_rigid.cpp:712)
WARNING: More than one fix rigid (src/RIGID/fix_rigid.cpp:712)
Neighbor list info ...
  update: every = 1 steps, delay = 0 steps, check = yes
  max neighbors/atom: 2000, page size: 100000
  master list distance cutoff = 2.8
  ghost atom cutoff = 5
  binsize = 1.4, bins = 72 72 46
  1 neighbor lists, perpetual/occasional/extra = 1 0 0
  (1) pair lj/cut/omp, perpetual
      attributes: half, newton on, omp
      pair build: half/bin/newton/omp
      stencil: half/bin/3d
      bin: standard
Setting up Verlet run ...
  Unit style    : lj
  Current step  : 1000
  Time step     : 0.005
Per MPI rank memory allocation (min/avg/max) = 12.77 | 16.09 | 22.58 Mbytes
   Step          Temp          PotEng         KinEng         TotEng         Press          Volume           Lx             Ly             Lz      
      1000   1.1960928     -1.3920821      1.2807993     -0.11128279     2.1557539      652213.97      100.74081      100.74081      64.265692    
      2000   1.0442223     -1.5413031      1.1181735     -0.42312966     0.75903296     652213.97      100.74081      100.74081      64.265692    
      3000   0.99933584    -1.569552       1.0701082     -0.4994438      0.77947182     652213.97      100.74081      100.74081      64.265692    
      4000   1.0007735     -1.5731958      1.0716477     -0.50154813     0.5366086      652213.97      100.74081      100.74081      64.265692    
      5000   0.99689843    -1.5691604      1.0674982     -0.50166222     0.58046857     652213.97      100.74081      100.74081      64.265692    
      6000   0.99695111    -1.5721918      1.0675546     -0.50463718     0.56491519     652213.97      100.74081      100.74081      64.265692    
Loop time of 17.3647 on 480 procs for 5000 steps with 766478 atoms

Performance: 124390.526 tau/day, 287.941 timesteps/s, 220.700 Matom-step/s
99.2% CPU use with 480 MPI tasks x 1 OpenMP threads

MPI task timing breakdown:
Section |  min time  |  avg time  |  max time  |%varavg| %total
---------------------------------------------------------------
Pair    | 1.8647     | 2.5468     | 2.887      |  15.6 | 14.67
Bond    | 0.0048271  | 0.023624   | 0.03915    |   6.1 |  0.14
Neigh   | 7.1676     | 7.3915     | 7.6712     |   5.1 | 42.57
Comm    | 4.0961     | 5.301      | 6.7034     |  33.5 | 30.53
Output  | 0.00046768 | 0.00053913 | 0.00070272 |   0.0 |  0.00
Modify  | 1.1892     | 1.8598     | 2.7725     |  30.6 | 10.71
Other   |            | 0.2414     |            |       |  1.39

Nlocal:        1596.83 ave        2557 max        1137 min
Histogram: 320 0 0 0 0 0 0 0 80 80
Nghost:        9541.88 ave       14867 max        6761 min
Histogram: 320 0 0 0 0 0 0 0 0 160
Neighs:        43679.3 ave       49474 max       32947 min
Histogram: 22 37 20 1 21 40 83 79 126 51

Total # of neighbors = 20966055
Ave neighs/atom = 27.35376
Ave special neighs/atom = 0.37574464
Neighbor list builds = 851
Dangerous builds = 0
========================================
Phase 3: Production flow with piston forcing
========================================
Generated 0 of 10 mixed pair_coeff terms from geometric mixing rule
Last active /omp style is bond_style fene/omp
WARNING: More than one fix rigid (src/RIGID/fix_rigid.cpp:712)
WARNING: More than one fix rigid (src/RIGID/fix_rigid.cpp:712)
Setting up Verlet run ...
  Unit style    : lj
  Current step  : 0
  Time step     : 0.005
Per MPI rank memory allocation (min/avg/max) = 15.79 | 20.11 | 28.6 Mbytes
   Step          Temp          PotEng         KinEng         TotEng         Press          Volume           Lx             Ly             Lz      
         0   0.99695111    -1.5721918      1.0675546     -0.50463718     0.53937538     652213.97      100.74081      100.74081      64.265692    
      1000   1.0002952     -1.5668229      1.0711355     -0.49568747     0.58282236     652213.97      100.74081      100.74081      64.265692    
      2000   0.99925982    -1.5690716      1.0700268     -0.49904483     0.58690495     652213.97      100.74081      100.74081      64.265692    
      3000   0.99862135    -1.568714       1.0693431     -0.49937095     0.56868072     652213.97      100.74081      100.74081      64.265692    
      4000   0.99824704    -1.5674261      1.0689423     -0.49848384     0.58864304     652213.97      100.74081      100.74081      64.265692    
      5000   0.99879375    -1.5680665      1.0695277     -0.49853876     0.55596943     652213.97      100.74081      100.74081      64.265692    
      6000   1.0000864     -1.5700913      1.0709119     -0.49917944     0.56051161     652213.97      100.74081      100.74081      64.265692    
      7000   0.99976343    -1.5700142      1.0705661     -0.49944817     0.56184211     652213.97      100.74081      100.74081      64.265692    
      8000   0.99928599    -1.5664386      1.0700548     -0.49638381     0.57877836     652213.97      100.74081      100.74081      64.265692    
      9000   0.99951528    -1.5680986      1.0703003     -0.49779831     0.58359133     652213.97      100.74081      100.74081      64.265692    
     10000   0.99856008    -1.5666184      1.0692775     -0.4973409      0.56359648     652213.97      100.74081      100.74081      64.265692    
     11000   1.0003945     -1.5666133      1.0712419     -0.4953714      0.5769267      652213.97      100.74081      100.74081      64.265692    
     12000   1.0000329     -1.5669533      1.0708546     -0.49609865     0.57754709     652213.97      100.74081      100.74081      64.265692    
     13000   1.0000934     -1.5690267      1.0709194     -0.49810726     0.56412505     652213.97      100.74081      100.74081      64.265692    
     14000   0.99991633    -1.5702928      1.0707298     -0.49956305     0.55895592     652213.97      100.74081      100.74081      64.265692    
     15000   0.9982617     -1.5692207      1.068958      -0.50026276     0.54875845     652213.97      100.74081      100.74081      64.265692    
     16000   0.99849493    -1.5679996      1.0692077     -0.49879185     0.56038494     652213.97      100.74081      100.74081      64.265692    
     17000   0.99894617    -1.5661053      1.0696909     -0.4964144      0.56885918     652213.97      100.74081      100.74081      64.265692    
     18000   1.0011596     -1.565156       1.0720611     -0.49309491     0.58296595     652213.97      100.74081      100.74081      64.265692    
     19000   1.0017033     -1.5688149      1.0726433     -0.49617164     0.55915952     652213.97      100.74081      100.74081      64.265692    
     20000   0.99892497    -1.5674993      1.0696682     -0.49783107     0.57529256     652213.97      100.74081      100.74081      64.265692    
     21000   1.000357      -1.5687528      1.0712016     -0.49755113     0.55577498     652213.97      100.74081      100.74081      64.265692    
     22000   0.99879128    -1.569379       1.0695251     -0.49985391     0.54349338     652213.97      100.74081      100.74081      64.265692    
     23000   0.99950901    -1.5672368      1.0702936     -0.49694314     0.5594711      652213.97      100.74081      100.74081      64.265692    
     24000   1.0001101     -1.5678286      1.0709372     -0.49689134     0.57041224     652213.97      100.74081      100.74081      64.265692    
     25000   1.0009515     -1.5663925      1.0718382     -0.49455421     0.55776514     652213.97      100.74081      100.74081      64.265692    
     26000   1.0002163     -1.5668191      1.071051      -0.49576808     0.56318762     652213.97      100.74081      100.74081      64.265692    
     27000   0.9993754     -1.5693721      1.0701506     -0.49922152     0.54987519     652213.97      100.74081      100.74081      64.265692    
     28000   1.0000134     -1.5683432      1.0708337     -0.49750947     0.55108073     652213.97      100.74081      100.74081      64.265692    
     29000   0.99963628    -1.5668325      1.0704299     -0.49640254     0.57688256     652213.97      100.74081      100.74081      64.265692    
     30000   1.0020629     -1.5679204      1.0730284     -0.49489193     0.57107211     652213.97      100.74081      100.74081      64.265692    
     31000   1.0008998     -1.5657938      1.0717829     -0.49401092     0.57100942     652213.97      100.74081      100.74081      64.265692    
     32000   1.0002551     -1.5661647      1.0710926     -0.49507211     0.57167748     652213.97      100.74081      100.74081      64.265692    
     33000   0.99880686    -1.5676239      1.0695417     -0.49808215     0.55903985     652213.97      100.74081      100.74081      64.265692    
     34000   0.99937227    -1.5664587      1.0701472     -0.49631153     0.5721201      652213.97      100.74081      100.74081      64.265692    
     35000   1.0013182     -1.5677352      1.0722309     -0.4955043      0.55642369     652213.97      100.74081      100.74081      64.265692    
     36000   1.0002961     -1.5675008      1.0711365     -0.49636432     0.5635114      652213.97      100.74081      100.74081      64.265692    
     37000   0.99983566    -1.5675657      1.0706434     -0.49692233     0.55913432     652213.97      100.74081      100.74081      64.265692    
     38000   0.99907473    -1.5701584      1.0698286     -0.50032981     0.55368247     652213.97      100.74081      100.74081      64.265692    
     39000   1.0017557     -1.5680258      1.0726994     -0.49532631     0.56026204     652213.97      100.74081      100.74081      64.265692    
     40000   0.99953261    -1.5657248      1.0703189     -0.49540591     0.57151607     652213.97      100.74081      100.74081      64.265692    
     41000   0.99988903    -1.5648565      1.0707006     -0.49415595     0.57986824     652213.97      100.74081      100.74081      64.265692    
     42000   1.0002042     -1.5678618      1.071038      -0.49682375     0.56750392     652213.97      100.74081      100.74081      64.265692    
     43000   0.99957723    -1.5670206      1.0703667     -0.49665394     0.56644123     652213.97      100.74081      100.74081      64.265692    
     44000   0.99862545    -1.5688923      1.0693475     -0.49954483     0.54887793     652213.97      100.74081      100.74081      64.265692    
     45000   1.0002467     -1.5683616      1.0710836     -0.49727804     0.55007505     652213.97      100.74081      100.74081      64.265692    
     46000   0.99895694    -1.5662179      1.0697025     -0.49651543     0.5623851      652213.97      100.74081      100.74081      64.265692    
     47000   1.0000639     -1.5679228      1.0708878     -0.49703504     0.56621431     652213.97      100.74081      100.74081      64.265692    
     48000   0.99987653    -1.5684056      1.0706872     -0.49771846     0.5526072      652213.97      100.74081      100.74081      64.265692    
     49000   1.0008974     -1.569175       1.0717804     -0.49739461     0.53711587     652213.97      100.74081      100.74081      64.265692    
     50000   0.99867007    -1.565941       1.0693953     -0.49654576     0.58544468     652213.97      100.74081      100.74081      64.265692    
     51000   1.0003398     -1.5675556      1.0711833     -0.49637233     0.56897286     652213.97      100.74081      100.74081      64.265692    
     52000   1.0011101     -1.5686481      1.0720081     -0.49664005     0.5590003      652213.97      100.74081      100.74081      64.265692    
     53000   1.0006842     -1.5674607      1.0715521     -0.4959086      0.55671357     652213.97      100.74081      100.74081      64.265692    
     54000   1.0004874     -1.5677348      1.0713413     -0.49639347     0.5608227      652213.97      100.74081      100.74081      64.265692    
     55000   1.0002305     -1.5711863      1.0710663     -0.50012002     0.54044691     652213.97      100.74081      100.74081      64.265692    
     56000   1.000346      -1.5688943      1.0711899     -0.4977044      0.55684489     652213.97      100.74081      100.74081      64.265692    
     57000   1.0010161     -1.5691469      1.0719074     -0.49723942     0.53953167     652213.97      100.74081      100.74081      64.265692    
     58000   0.99991968    -1.5685434      1.0707334     -0.49780999     0.55107742     652213.97      100.74081      100.74081      64.265692    
     59000   1.001699      -1.5673178      1.0726387     -0.49467913     0.55627044     652213.97      100.74081      100.74081      64.265692    
     60000   1.0019493     -1.5690697      1.0729067     -0.49616295     0.54327656     652213.97      100.74081      100.74081      64.265692    
     61000   1.0003133     -1.5668092      1.0711549     -0.4956543      0.56492696     652213.97      100.74081      100.74081      64.265692    
     62000   1.0000929     -1.5673776      1.0709188     -0.4964588      0.56566587     652213.97      100.74081      100.74081      64.265692    
     63000   0.99750956    -1.5660793      1.0681526     -0.49792671     0.57236123     652213.97      100.74081      100.74081      64.265692    
     64000   1.0009712     -1.5679859      1.0718594     -0.49612649     0.55489378     652213.97      100.74081      100.74081      64.265692    
     65000   1.0005161     -1.5659559      1.071372      -0.49458389     0.56725496     652213.97      100.74081      100.74081      64.265692    
     66000   0.99871031    -1.5668214      1.0694384     -0.49738304     0.56451971     652213.97      100.74081      100.74081      64.265692    
     67000   1.0001238     -1.5683495      1.070952      -0.49739754     0.56333382     652213.97      100.74081      100.74081      64.265692    
     68000   1.0002597     -1.5688804      1.0710975     -0.49778297     0.54939182     652213.97      100.74081      100.74081      64.265692    
     69000   0.99992739    -1.5668602      1.0707416     -0.49611861     0.56973194     652213.97      100.74081      100.74081      64.265692    
     70000   1.0001946     -1.569105       1.0710278     -0.49807719     0.55003239     652213.97      100.74081      100.74081      64.265692    
     71000   1.0011139     -1.571026       1.0720122     -0.4990138      0.54046957     652213.97      100.74081      100.74081      64.265692    
     72000   0.99847312    -1.5690201      1.0691844     -0.49983578     0.55498639     652213.97      100.74081      100.74081      64.265692    
     73000   0.99901251    -1.5676691      1.069762      -0.49790715     0.55901057     652213.97      100.74081      100.74081      64.265692    
     74000   0.99908063    -1.5678104      1.0698349     -0.49797551     0.55716958     652213.97      100.74081      100.74081      64.265692    
     75000   0.99898903    -1.5664829      1.0697368     -0.49674613     0.56300057     652213.97      100.74081      100.74081      64.265692    
     76000   1.0005433     -1.5664603      1.0714011     -0.49505918     0.5749196      652213.97      100.74081      100.74081      64.265692    
     77000   1.0009101     -1.5678669      1.0717939     -0.49607295     0.5639054      652213.97      100.74081      100.74081      64.265692    
     78000   1.0013621     -1.5692291      1.072278      -0.49695108     0.55616179     652213.97      100.74081      100.74081      64.265692    
     79000   0.99974772    -1.5677829      1.0705492     -0.49723363     0.55322833     652213.97      100.74081      100.74081      64.265692    
     80000   0.99786339    -1.5674457      1.0685315     -0.49891424     0.55172175     652213.97      100.74081      100.74081      64.265692    
     81000   0.99939493    -1.5675296      1.0701715     -0.49735815     0.55601607     652213.97      100.74081      100.74081      64.265692    
     82000   1.0006332     -1.5677562      1.0714974     -0.49625879     0.5627591      652213.97      100.74081      100.74081      64.265692    
     83000   1.0008855     -1.5677083      1.0717676     -0.49594061     0.56440884     652213.97      100.74081      100.74081      64.265692    
     84000   1.0010717     -1.5689012      1.0719669     -0.49693429     0.56272184     652213.97      100.74081      100.74081      64.265692    
     85000   1.0021314     -1.567626       1.0731018     -0.49452427     0.56185286     652213.97      100.74081      100.74081      64.265692    
     86000   1.0007274     -1.5690097      1.0715983     -0.4974114      0.55885632     652213.97      100.74081      100.74081      64.265692    
     87000   0.99986526    -1.568584       1.0706751     -0.49790886     0.55251353     652213.97      100.74081      100.74081      64.265692    
     88000   1.0006711     -1.5663334      1.071538      -0.49479535     0.56625775     652213.97      100.74081      100.74081      64.265692    
     89000   1.00045       -1.5680647      1.0713012     -0.49676353     0.55768188     652213.97      100.74081      100.74081      64.265692    
     90000   1.0009053     -1.5679684      1.0717888     -0.49617957     0.5523719      652213.97      100.74081      100.74081      64.265692    
     91000   1.0012936     -1.5674055      1.0722046     -0.49520092     0.57712705     652213.97      100.74081      100.74081      64.265692    
     92000   1.0008952     -1.5684331      1.071778      -0.49665509     0.57007289     652213.97      100.74081      100.74081      64.265692    
     93000   1.0000927     -1.5695592      1.0709187     -0.4986405      0.55465436     652213.97      100.74081      100.74081      64.265692    
     94000   1.000074      -1.5705264      1.0708986     -0.49962786     0.54458749     652213.97      100.74081      100.74081      64.265692    
     95000   0.99869152    -1.5691225      1.0694182     -0.49970428     0.55369647     652213.97      100.74081      100.74081      64.265692    
     96000   1.0001463     -1.5679317      1.070976      -0.49695562     0.55257569     652213.97      100.74081      100.74081      64.265692    
     97000   0.99895737    -1.565375       1.0697029     -0.49567206     0.57826836     652213.97      100.74081      100.74081      64.265692    
     98000   1.0009384     -1.5675145      1.0718242     -0.49569032     0.57648791     652213.97      100.74081      100.74081      64.265692    
     99000   0.99981516    -1.567852       1.0706214     -0.49723057     0.56421099     652213.97      100.74081      100.74081      64.265692    
    100000   1.0009758     -1.5704284      1.0718643     -0.49856417     0.55932023     652213.97      100.74081      100.74081      64.265692    
Loop time of 344.081 on 480 procs for 100000 steps with 766478 atoms

Performance: 125551.882 tau/day, 290.629 timesteps/s, 222.761 Matom-step/s
99.2% CPU use with 480 MPI tasks x 1 OpenMP threads

MPI task timing breakdown:
Section |  min time  |  avg time  |  max time  |%varavg| %total
---------------------------------------------------------------
Pair    | 39.948     | 51.469     | 57.153     |  61.6 | 14.96
Bond    | 0.20432    | 0.59065    | 0.85219    |  24.4 |  0.17
Neigh   | 138.9      | 143.68     | 149.36     |  23.8 | 41.76
Comm    | 80.366     | 104.32     | 130.84     | 153.3 | 30.32
Output  | 0.035103   | 0.29254    | 0.52455    |  30.8 |  0.09
Modify  | 24.737     | 39.077     | 59.614     | 150.2 | 11.36
Other   |            | 4.648      |            |       |  1.35

Nlocal:        1596.83 ave        2587 max        1123 min
Histogram: 320 0 0 0 0 0 0 9 71 80
Nghost:        9541.56 ave       14908 max        6753 min
Histogram: 320 0 0 0 0 0 0 0 0 160
Neighs:        43657.1 ave       48807 max       33161 min
Histogram: 17 41 22 0 1 23 89 98 140 49

Total # of neighbors = 20955385
Ave neighs/atom = 27.339839
Ave special neighs/atom = 0.37574464
Neighbor list builds = 16744
Dangerous builds = 0
========================================
Flow simulation complete
========================================
System init for write_data ...
Generated 0 of 10 mixed pair_coeff terms from geometric mixing rule
Last active /omp style is bond_style fene/omp
WARNING: More than one fix rigid (src/RIGID/fix_rigid.cpp:712)
WARNING: More than one fix rigid (src/RIGID/fix_rigid.cpp:712)
WARNING: Not all mixed pair coeffs generated from mixing. Use write_data with 'pair ij' option to store all pair coeffs. (src/write_data.cpp:364)
Total wall time: 0:06:15
======================================
Running post-processing...
======================================
Generating convergence plot...
Plot saved to ./output_plots/convergence_plots/final_config_slab_support_5beads_10x10x5_rho6_extra_padding43_1.5_1.4_10000000_1.5_1.4_100000_convergence.png
Generating stress profiles...
Warning: Could not find data file (tried final_config_slab_support_5beads_10x10x5_rho6_extra_padding43.data and final_config_slab_support_5beads_10x10x5_rho6_extra_padding43_1.5_1.4_10000000_1.5_1.4_100000.data), using default box dimensions
Stress profile saved to ./output_plots/final_config_slab_support_5beads_10x10x5_rho6_extra_padding43_1.5_1.4_10000000_1.5_1.4_100000_stress.png
No volume data found for final_config_slab_support_5beads_10x10x5_rho6_extra_padding43_1.5_1.4_10000000_1.5_1.4_100000, skipping volume fraction plots
Generating piston plots...
Read 11 position points, 11 velocity points
Piston plot saved to ./output_plots/final_config_slab_support_5beads_10x10x5_rho6_extra_padding43_1.5_1.4_10000000_1.5_1.4_100000_piston.png

=== Piston Summary ===
Initial position: 58.6953
Final position:   58.1922
Total displacement: -0.5031
Steady-state velocity: -8.53e-04 ± 1.51e-03
Generating computational efficiency plot...
Data file not found: ./data_files/final_config_slab_support_5beads_10x10x5_rho6_extra_padding43.data
Error: Could not parse data file
======================================
Done! Results are in: /jet/home/dpollard/Documents/lammps_runs/slab_with_flow_final_config_slab_support_5beads_10x10x5_rho6_extra_padding43_1.5_1.4_10000000_1.5_1.4_20260107_201557
======================================
