======================================
Working directory: /jet/home/dpollard/Documents/lammps_runs/slab_with_flow_final_config_slab_support_5beads_10x10x5_rho6_extra_padding43_1.5_1.4_10000000_1.5_1.4_20260107_183240
Trajectory directory (scratch): /ocean/projects/chm250028p/dpollard/lammps_trajectories/slab_with_flow_final_config_slab_support_5beads_10x10x5_rho6_extra_padding43_1.5_1.4_10000000_1.5_1.4_20260107_183240
======================================
Running LAMMPS in slab_with_flow with:
  dataname=final_config_slab_support_5beads_10x10x5_rho6_extra_padding43_1.5_1.4_10000000
  epsSS=1.5, epsSP=1.4
  nsteps=20000, oldsteps=0, totsteps=20000
SLURM tasks per node: 120
SLURM CPUs per task: 1
SLURM_GPUS_ON_NODE: 
GPUs allocated: 
Running CPU-only with 360 tasks
LAMMPS (22 Jul 2025)
  using 1 OpenMP thread(s) per MPI task
using multi-threaded neighbor list subroutines
Reading data file ...
  orthogonal box = (-6.8704069 -6.8704069 -4.3828458) to (93.870407 93.870407 59.882846)
  8 by 9 by 5 MPI processor grid
WARNING: Pair style lj/cut/omp in data file differs from currently defined pair style zero (src/read_data.cpp:811)
  reading atoms ...
  766478 atoms
  reading velocities ...
  766478 velocities
  scanning bonds ...
  3 = max bonds/atom
  orthogonal box = (-6.8704069 -6.8704069 -4.3828458) to (93.870407 93.870407 59.882846)
  8 by 9 by 5 MPI processor grid
  reading bonds ...
  144000 bonds
Finding 1-2 1-3 1-4 neighbors ...
  special bond factors lj:    0        0        0       
  special bond factors coul:  0        0        0       
     4 = max # of 1-2 neighbors
     4 = max # of 1-3 neighbors
     8 = max # of 1-4 neighbors
    12 = max # of special neighbors
  special bonds CPU = 0.117 seconds
  read_data CPU = 4.683 seconds
========================================
Flow simulation: final_config_slab_support_5beads_10x10x5_rho6_extra_padding43_1.5_1.4_10000000
Interaction: epsSS=1.5, epsSP=1.4
Production steps: 20000
Piston force per bead: 0.01
========================================
127091 atoms in group polymer
420079 atoms in group solvent
109654 atoms in group support
109654 atoms in group piston
547170 atoms in group mobile
346399 atoms in group gel_system
Finding 1-2 1-3 1-4 neighbors ...
  special bond factors lj:    0        1        1       
  special bond factors coul:  0        1        1       
     4 = max # of 1-2 neighbors
    12 = max # of special neighbors
  special bonds CPU = 0.050 seconds
  1 rigid bodies with 109654 atoms
  1 rigid bodies with 109654 atoms
========================================
Phase 1: Soft push to resolve solvent-piston overlaps
========================================
Generated 0 of 10 mixed pair_coeff terms from geometric mixing rule
Hybrid pair style last /omp style soft
Last active /omp style is bond_style fene/omp
WARNING: More than one fix rigid (src/RIGID/fix_rigid.cpp:712)
WARNING: More than one fix rigid (src/RIGID/fix_rigid.cpp:712)
Neighbor list info ...
  update: every = 1 steps, delay = 0 steps, check = yes
  max neighbors/atom: 2000, page size: 100000
  master list distance cutoff = 2.8
  ghost atom cutoff = 5
  binsize = 1.4, bins = 72 72 46
  2 neighbor lists, perpetual/occasional/extra = 2 0 0
  (1) pair lj/cut, perpetual
      attributes: half, newton on, omp, cut 2.8
      pair build: half/bin/newton/omp
      stencil: half/bin/3d
      bin: standard
  (2) pair soft, perpetual, skip from (1)
      attributes: half, newton on, omp
      pair build: skip/omp
      stencil: none
      bin: none
Setting up Verlet run ...
  Unit style    : lj
  Current step  : 0
  Time step     : 0.005
Per MPI rank memory allocation (min/avg/max) = 13.43 | 17.99 | 25.35 Mbytes
   Step          Temp          PotEng         KinEng         TotEng         Press          Volume           Lx             Ly             Lz      
         0   1.1850382     -1.2513347      1.2689619      0.017627139    1.0000028      652213.97      100.74081      100.74081      64.265692    
      1000   1.1960856     -1.3595015      1.2807917     -0.078709824    2.1438561      652213.97      100.74081      100.74081      64.265692    
Loop time of 7.91614 on 360 procs for 1000 steps with 766478 atoms

Performance: 54572.023 tau/day, 126.324 timesteps/s, 96.825 Matom-step/s
99.0% CPU use with 360 MPI tasks x 1 OpenMP threads

MPI task timing breakdown:
Section |  min time  |  avg time  |  max time  |%varavg| %total
---------------------------------------------------------------
Pair    | 1.244      | 1.6453     | 2.6225     |  26.0 | 20.78
Bond    | 0.0037793  | 0.020458   | 0.044348   |   5.7 |  0.26
Neigh   | 3.1082     | 3.1875     | 3.3111     |   2.4 | 40.27
Comm    | 0.968      | 1.6383     | 2.4418     |  25.2 | 20.70
Output  | 0.0025653  | 0.0025791  | 0.00262    |   0.0 |  0.03
Modify  | 0.76585    | 1.3458     | 2.1988     |  29.9 | 17.00
Other   |            | 0.07622    |            |       |  0.96

Nlocal:        2129.11 ave        3029 max        1547 min
Histogram: 213 3 0 0 0 0 0 20 52 72
Nghost:        11139.6 ave       15808 max        7775 min
Histogram: 216 0 0 0 0 0 0 0 0 144
Neighs:         188788 ave      428221 max       58696 min
Histogram: 216 0 0 0 0 0 0 72 0 72

Total # of neighbors = 67963579
Ave neighs/atom = 88.669967
Ave special neighs/atom = 0.37574464
Neighbor list builds = 210
Dangerous builds = 0
Soft push complete - overlaps resolved
========================================
Phase 2: Switching to full LJ interactions
========================================
Generated 0 of 10 mixed pair_coeff terms from geometric mixing rule
Last active /omp style is bond_style fene/omp
WARNING: More than one fix rigid (src/RIGID/fix_rigid.cpp:712)
WARNING: More than one fix rigid (src/RIGID/fix_rigid.cpp:712)
Neighbor list info ...
  update: every = 1 steps, delay = 0 steps, check = yes
  max neighbors/atom: 2000, page size: 100000
  master list distance cutoff = 2.8
  ghost atom cutoff = 5
  binsize = 1.4, bins = 72 72 46
  1 neighbor lists, perpetual/occasional/extra = 1 0 0
  (1) pair lj/cut/omp, perpetual
      attributes: half, newton on, omp
      pair build: half/bin/newton/omp
      stencil: half/bin/3d
      bin: standard
Setting up Verlet run ...
  Unit style    : lj
  Current step  : 1000
  Time step     : 0.005
Per MPI rank memory allocation (min/avg/max) = 12.81 | 16.8 | 22.67 Mbytes
   Step          Temp          PotEng         KinEng         TotEng         Press          Volume           Lx             Ly             Lz      
      1000   1.1960856     -1.3920754      1.2807917     -0.11128373     2.1558642      652213.97      100.74081      100.74081      64.265692    
      2000   1.0441698     -1.5417798      1.1181172     -0.42366254     0.757461       652213.97      100.74081      100.74081      64.265692    
      3000   0.99997907    -1.5696524      1.070797      -0.49885544     0.78477173     652213.97      100.74081      100.74081      64.265692    
      4000   1.0005026     -1.5720901      1.0713576     -0.50073253     0.53572591     652213.97      100.74081      100.74081      64.265692    
      5000   0.99749746    -1.5703919      1.0681396     -0.5022523      0.58018371     652213.97      100.74081      100.74081      64.265692    
      6000   0.9970829     -1.5714615      1.0676957     -0.50376582     0.56010145     652213.97      100.74081      100.74081      64.265692    
Loop time of 21.5501 on 360 procs for 5000 steps with 766478 atoms

Performance: 100231.578 tau/day, 232.018 timesteps/s, 177.836 Matom-step/s
99.2% CPU use with 360 MPI tasks x 1 OpenMP threads

MPI task timing breakdown:
Section |  min time  |  avg time  |  max time  |%varavg| %total
---------------------------------------------------------------
Pair    | 2.5833     | 3.3837     | 4.2506     |  17.3 | 15.70
Bond    | 0.0076933  | 0.03068    | 0.049887   |   6.7 |  0.14
Neigh   | 8.2048     | 8.6356     | 9.1054     |   5.8 | 40.07
Comm    | 4.7408     | 6.4036     | 7.8362     |  33.3 | 29.72
Output  | 0.00050537 | 0.00057249 | 0.00083537 |   0.0 |  0.00
Modify  | 2.0175     | 2.8536     | 4.0255     |  26.8 | 13.24
Other   |            | 0.2422     |            |       |  1.12

Nlocal:        2129.11 ave        3093 max        1518 min
Histogram: 216 0 0 0 0 0 0 0 72 72
Nghost:        11144.2 ave       16203 max        7727 min
Histogram: 216 0 0 0 0 0 0 0 0 144
Neighs:        58232.2 ave       65190 max       44677 min
Histogram: 10 27 30 5 4 22 58 73 58 73

Total # of neighbors = 20963609
Ave neighs/atom = 27.350568
Ave special neighs/atom = 0.37574464
Neighbor list builds = 850
Dangerous builds = 0
========================================
Phase 3: Production flow with piston forcing
========================================
Generated 0 of 10 mixed pair_coeff terms from geometric mixing rule
Last active /omp style is bond_style fene/omp
WARNING: More than one fix rigid (src/RIGID/fix_rigid.cpp:712)
WARNING: More than one fix rigid (src/RIGID/fix_rigid.cpp:712)
Setting up Verlet run ...
  Unit style    : lj
  Current step  : 0
  Time step     : 0.005
Per MPI rank memory allocation (min/avg/max) = 15.82 | 21.02 | 28.69 Mbytes
   Step          Temp          PotEng         KinEng         TotEng         Press          Volume           Lx             Ly             Lz      
         0   0.9970829     -1.5714615      1.0676957     -0.50376582     0.53608661     652213.97      100.74081      100.74081      64.265692    
      1000   1.0010954     -1.5673359      1.0719923     -0.49534359     0.57572138     652213.97      100.74081      100.74081      64.265692    
      2000   0.99888467    -1.5683085      1.0696251     -0.4986834      0.58042184     652213.97      100.74081      100.74081      64.265692    
      3000   1.0000597     -1.5686548      1.0708833     -0.49777144     0.56207681     652213.97      100.74081      100.74081      64.265692    
      4000   1.0028803     -1.5680391      1.0739037     -0.49413541     0.57696322     652213.97      100.74081      100.74081      64.265692    
      5000   0.99891271    -1.5688476      1.0696551     -0.49919256     0.55819016     652213.97      100.74081      100.74081      64.265692    
      6000   0.99891221    -1.568626       1.0696546     -0.49897145     0.57492183     652213.97      100.74081      100.74081      64.265692    
      7000   0.99792971    -1.5701855      1.0686025     -0.50158299     0.55310609     652213.97      100.74081      100.74081      64.265692    
      8000   0.99830842    -1.5689068      1.069008      -0.49989882     0.56540001     652213.97      100.74081      100.74081      64.265692    
      9000   1.0006078     -1.5697383      1.0714702     -0.49826809     0.56648767     652213.97      100.74081      100.74081      64.265692    
     10000   0.99991517    -1.5698085      1.0707286     -0.4990799      0.56449642     652213.97      100.74081      100.74081      64.265692    
     11000   1.0005919     -1.5699913      1.0714532     -0.49853805     0.56330303     652213.97      100.74081      100.74081      64.265692    
     12000   0.99919212    -1.5713512      1.0699543     -0.50139694     0.53507867     652213.97      100.74081      100.74081      64.265692    
     13000   1.0006917     -1.5715628      1.0715601     -0.50000279     0.54732258     652213.97      100.74081      100.74081      64.265692    
     14000   1.0030711     -1.5754316      1.0741079     -0.50132364     0.55391266     652213.97      100.74081      100.74081      64.265692    
     15000   1.0001303     -1.5779121      1.0709589     -0.50695312     0.57701956     652213.97      100.74081      100.74081      64.265692    
     16000   1.0015971     -1.5859096      1.0725296     -0.51338002     0.60591305     652213.97      100.74081      100.74081      64.265692    
     17000   1.0017825     -1.5882568      1.0727281     -0.51552862     0.63879931     652213.97      100.74081      100.74081      64.265692    
     18000   1.0021535     -1.5899332      1.0731254     -0.51680782     0.63616393     652213.97      100.74081      100.74081      64.265692    
     19000   0.99912975    -1.5895419      1.0698875     -0.51965437     0.63264463     652213.97      100.74081      100.74081      64.265692    
     20000   1.0016486     -1.5874589      1.0725847     -0.51487419     0.59688446     652213.97      100.74081      100.74081      64.265692    
Loop time of 94.2018 on 360 procs for 20000 steps with 766478 atoms

Performance: 91717.989 tau/day, 212.310 timesteps/s, 162.731 Matom-step/s
98.6% CPU use with 360 MPI tasks x 1 OpenMP threads

MPI task timing breakdown:
Section |  min time  |  avg time  |  max time  |%varavg| %total
---------------------------------------------------------------
Pair    | 11.726     | 13.706     | 15.239     |  26.4 | 14.55
Bond    | 0.046323   | 0.14404    | 0.21483    |  12.6 |  0.15
Neigh   | 35.62      | 36.647     | 38.563     |   9.8 | 38.90
Comm    | 20.662     | 26.588     | 34.627     |  61.6 | 28.22
Output  | 0.021362   | 0.077658   | 0.13989    |  12.5 |  0.08
Modify  | 10.431     | 15.411     | 18.815     |  47.4 | 16.36
Other   |            | 1.629      |            |       |  1.73

Nlocal:        2129.11 ave        4427 max        1505 min
Histogram: 288 0 0 0 0 0 0 0 0 72
Nghost:        11220.6 ave       17876 max        7735 min
Histogram: 216 0 0 0 0 0 72 0 0 72
Neighs:        58440.3 ave       64340 max       44196 min
Histogram: 19 49 4 0 0 0 26 71 64 127

Total # of neighbors = 21038503
Ave neighs/atom = 27.44828
Ave special neighs/atom = 0.37574464
Neighbor list builds = 3350
Dangerous builds = 0
========================================
Flow simulation complete
========================================
System init for write_data ...
Generated 0 of 10 mixed pair_coeff terms from geometric mixing rule
Last active /omp style is bond_style fene/omp
WARNING: More than one fix rigid (src/RIGID/fix_rigid.cpp:712)
WARNING: More than one fix rigid (src/RIGID/fix_rigid.cpp:712)
WARNING: Not all mixed pair coeffs generated from mixing. Use write_data with 'pair ij' option to store all pair coeffs. (src/write_data.cpp:364)
Total wall time: 0:02:10
======================================
Running post-processing...
======================================
Generating convergence plot...
Plot saved to ./output_plots/convergence_plots/final_config_slab_support_5beads_10x10x5_rho6_extra_padding43_1.5_1.4_10000000_1.5_1.4_20000_convergence.png
Generating stress profiles...
Warning: Could not find data file (tried final_config_slab_support_5beads_10x10x5_rho6_extra_padding43.data and final_config_slab_support_5beads_10x10x5_rho6_extra_padding43_1.5_1.4_10000000_1.5_1.4_20000.data), using default box dimensions
Stress profile saved to ./output_plots/final_config_slab_support_5beads_10x10x5_rho6_extra_padding43_1.5_1.4_10000000_1.5_1.4_20000_stress.png
No volume data found for final_config_slab_support_5beads_10x10x5_rho6_extra_padding43_1.5_1.4_10000000_1.5_1.4_20000, skipping volume fraction plots
Generating computational efficiency plot...
Data file not found: ./data_files/final_config_slab_support_5beads_10x10x5_rho6_extra_padding43.data
Error: Could not parse data file
======================================
Done! Results are in: /jet/home/dpollard/Documents/lammps_runs/slab_with_flow_final_config_slab_support_5beads_10x10x5_rho6_extra_padding43_1.5_1.4_10000000_1.5_1.4_20260107_183240
======================================
