======================================
Working directory: /jet/home/dpollard/Documents/lammps_runs/slab_with_flow_walled_slab_support_5beads_tall_4_1.0_1.05_15000000_1.0_1.05_20260216_172048
Trajectory directory (scratch): /ocean/projects/chm250028p/dpollard/lammps_trajectories/slab_with_flow_walled_slab_support_5beads_tall_4_1.0_1.05_15000000_1.0_1.05_20260216_172048
======================================
Running LAMMPS in slab_with_flow with:
  dataname=walled_slab_support_5beads_tall_4_1.0_1.05_15000000
  epsSS=1.0, epsSP=1.05
  nsteps=50000, oldsteps=0, totsteps=50000
SLURM tasks per node: 120
SLURM CPUs per task: 1
SLURM_GPUS_ON_NODE: 
GPUs allocated: 
Running CPU-only with 360 tasks
LAMMPS (22 Jul 2025)
  using 1 OpenMP thread(s) per MPI task
using multi-threaded neighbor list subroutines
>>> Stress: nevery=100 nrepeat=50 nfreq=5000
>>> Mode: compression_mode=1  (0=permeation, 1=compression)
Reading data file ...
  orthogonal box = (-5.6347822 -5.6347822 -9.6815804) to (71.634782 71.634782 123.08158)
  6 by 6 by 10 MPI processor grid
  reading atoms ...
  1278442 atoms
  scanning bonds ...
  3 = max bonds/atom
  orthogonal box = (-5.6347822 -5.6347822 -9.6815804) to (71.634782 71.634782 123.08158)
  6 by 6 by 10 MPI processor grid
  reading bonds ...
  114808 bonds
Finding 1-2 1-3 1-4 neighbors ...
  special bond factors lj:    0        0        0       
  special bond factors coul:  0        0        0       
     4 = max # of 1-2 neighbors
     4 = max # of 1-3 neighbors
     8 = max # of 1-4 neighbors
    12 = max # of special neighbors
  special bonds CPU = 0.142 seconds
  read_data CPU = 8.289 seconds
========================================
Flow/Compression simulation: walled_slab_support_5beads_tall_4_1.0_1.05_15000000
Interaction: epsSS=1.0, epsSP=1.05
Production steps: 50000
Piston force: 0 -> 0 (ramp)
========================================
101482 atoms in group polymer
197612 atoms in group solvent
63221 atoms in group support
63221 atoms in group piston
852906 atoms in group walls
299094 atoms in group mobile
425536 atoms in group gel_system
Finding 1-2 1-3 1-4 neighbors ...
  special bond factors lj:    0        1        1       
  special bond factors coul:  0        1        1       
     4 = max # of 1-2 neighbors
    12 = max # of special neighbors
  special bonds CPU = 0.069 seconds
  1 rigid bodies with 63221 atoms
  1 rigid bodies with 63221 atoms
  1 rigid bodies with 852906 atoms
========================================
Phase 1: Soft push to resolve overlaps
========================================
Generated 0 of 15 mixed pair_coeff terms from geometric mixing rule
Hybrid pair style last /omp style soft
Last active /omp style is bond_style fene/omp
WARNING: More than one fix rigid (src/RIGID/fix_rigid.cpp:712)
WARNING: More than one fix rigid (src/RIGID/fix_rigid.cpp:712)
WARNING: More than one fix rigid (src/RIGID/fix_rigid.cpp:712)
Neighbor list info ...
  update: every = 1 steps, delay = 0 steps, check = yes
  max neighbors/atom: 2000, page size: 100000
  master list distance cutoff = 2.8
  ghost atom cutoff = 5
  binsize = 1.4, bins = 56 56 95
  2 neighbor lists, perpetual/occasional/extra = 2 0 0
  (1) pair lj/cut, perpetual
      attributes: half, newton on, omp, cut 2.8
      pair build: half/bin/newton/omp
      stencil: half/bin/3d
      bin: standard
  (2) pair soft, perpetual, skip from (1)
      attributes: half, newton on, omp
      pair build: skip/omp
      stencil: none
      bin: none
Setting up Verlet run ...
  Unit style    : lj
  Current step  : 0
  Time step     : 0.005
Per MPI rank memory allocation (min/avg/max) = 16.63 | 27.02 | 38.83 Mbytes
   Step     c_mobile_temp      PotEng         KinEng         TotEng         Press          Volume           Lx             Ly             Lz      
         0   0              0.50526228     0              0.50526228     0.083476512    792673.82      77.269564      77.269564      132.76316    
      1000   0.82867149     0.32978847     0.290803       0.62059147     0.60544027     792673.82      77.269564      77.269564      132.76316    
Loop time of 27.1782 on 360 procs for 1000 steps with 1278442 atoms

Performance: 15895.102 tau/day, 36.794 timesteps/s, 47.039 Matom-step/s
99.1% CPU use with 360 MPI tasks x 1 OpenMP threads

MPI task timing breakdown:
Section |  min time  |  avg time  |  max time  |%varavg| %total
---------------------------------------------------------------
Pair    | 0.06098    | 0.93512    | 2.256      |  67.1 |  3.44
Bond    | 0.0011246  | 0.018725   | 0.077778   |  15.4 |  0.07
Neigh   | 20.566     | 21.083     | 21.653     |   5.4 | 77.57
Comm    | 2.0689     | 3.5658     | 4.8125     |  37.9 | 13.12
Output  | 0.010274   | 0.062191   | 0.11297    |  16.5 |  0.23
Modify  | 0.8072     | 1.2322     | 1.7444     |  17.4 |  4.53
Other   |            | 0.2807     |            |       |  1.03

Nlocal:        3551.23 ave        6908 max        1026 min
Histogram: 20 140 2 32 6 0 124 4 0 32
Nghost:        18139.9 ave       41192 max        7825 min
Histogram: 64 87 53 8 88 4 25 23 0 8
Neighs:        46212.4 ave      119076 max         105 min
Histogram: 76 57 45 15 8 33 69 41 12 4

Total # of neighbors = 16636462
Ave neighs/atom = 13.013075
Ave special neighs/atom = 0.17960611
Neighbor list builds = 405
Dangerous builds = 0
Generated 0 of 15 mixed pair_coeff terms from geometric mixing rule
Hybrid pair style last /omp style soft
Last active /omp style is bond_style fene/omp
WARNING: More than one fix rigid (src/RIGID/fix_rigid.cpp:712)
WARNING: More than one fix rigid (src/RIGID/fix_rigid.cpp:712)
WARNING: More than one fix rigid (src/RIGID/fix_rigid.cpp:712)
Setting up cg style minimization ...
  Unit style    : lj
  Current step  : 1000
Per MPI rank memory allocation (min/avg/max) = 18.38 | 30.82 | 44.22 Mbytes
   Step     c_mobile_temp      PotEng         KinEng         TotEng         Press          Volume           Lx             Ly             Lz      
      1000   0.82867149     0.32978847     0.290803       0.62059147     0.60544027     792673.82      77.269564      77.269564      132.76316    
      2000   0.82867149    -0.065723129    0.290803       0.22507987     0.061522185    792673.82      77.269564      77.269564      132.76316    
Loop time of 25.547 on 360 procs for 1000 steps with 1278442 atoms

99.1% CPU use with 360 MPI tasks x 1 OpenMP threads

Minimization stats:
  Stopping criterion = max iterations
  Energy initial, next-to-last, final = 
     0.329788474635942 -0.0656639859888765 -0.0657231285105067
  Force two-norm initial, final = 18519.214 376.36841
  Force max component initial, final = 331.87206 108.61476
  Final line search alpha, max atom move = 0.001159731 0.1259639
  Iterations, force evaluations = 1000 1349

MPI task timing breakdown:
Section |  min time  |  avg time  |  max time  |%varavg| %total
---------------------------------------------------------------
Pair    | 0.016847   | 1.0574     | 3.931      | 105.8 |  4.14
Bond    | 0.0010702  | 0.019516   | 0.068387   |  17.5 |  0.08
Neigh   | 17.832     | 18.336     | 18.871     |   5.5 | 71.77
Comm    | 1.2337     | 4.6088     | 6.3291     |  55.4 | 18.04
Output  | 0.010025   | 0.036527   | 0.060203   |   8.8 |  0.14
Modify  | 0.016726   | 0.1001     | 0.25258    |  17.7 |  0.39
Other   |            | 1.389      |            |       |  5.44

Nlocal:        3551.23 ave        6811 max        1026 min
Histogram: 20 114 26 32 8 0 128 0 0 32
Nghost:          18054 ave       40728 max        7687 min
Histogram: 64 88 50 10 88 4 24 24 0 8
Neighs:        37350.7 ave      111801 max           0 min
Histogram: 200 0 0 0 3 10 45 51 26 25

Total # of neighbors = 13446236
Ave neighs/atom = 10.517674
Ave special neighs/atom = 0.17960611
Neighbor list builds = 370
Dangerous builds = 7
Soft push complete
========================================
Phase 2: Switching to full LJ interactions
========================================
Generated 0 of 15 mixed pair_coeff terms from geometric mixing rule
Last active /omp style is bond_style fene/omp
WARNING: More than one fix rigid (src/RIGID/fix_rigid.cpp:712)
WARNING: More than one fix rigid (src/RIGID/fix_rigid.cpp:712)
WARNING: More than one fix rigid (src/RIGID/fix_rigid.cpp:712)
Neighbor list info ...
  update: every = 1 steps, delay = 0 steps, check = yes
  max neighbors/atom: 2000, page size: 100000
  master list distance cutoff = 2.8
  ghost atom cutoff = 5
  binsize = 1.4, bins = 56 56 95
  1 neighbor lists, perpetual/occasional/extra = 1 0 0
  (1) pair lj/cut/omp, perpetual
      attributes: half, newton on, omp
      pair build: half/bin/newton/omp
      stencil: half/bin/3d
      bin: standard
Setting up cg style minimization ...
  Unit style    : lj
  Current step  : 2000
Per MPI rank memory allocation (min/avg/max) = 17.76 | 30.28 | 43.71 Mbytes
   Step     c_mobile_temp      PotEng         KinEng         TotEng         Press          Volume           Lx             Ly             Lz      
      2000   0.82867149    -0.065832195    0.290803       0.2249708      0.06153619     792673.82      77.269564      77.269564      132.76316    
      2005   0.82867149    -0.066002104    0.290803       0.22480089     0.061772799    792673.82      77.269564      77.269564      132.76316    
Loop time of 0.179081 on 360 procs for 5 steps with 1278442 atoms

99.2% CPU use with 360 MPI tasks x 1 OpenMP threads

Minimization stats:
  Stopping criterion = energy tolerance
  Energy initial, next-to-last, final = 
    -0.0658321947212164 -0.0659969840896479 -0.0660021042898516
  Force two-norm initial, final = 394.38375 162.63881
  Force max component initial, final = 108.61476 29.917049
  Final line search alpha, max atom move = 0.0037099366 0.11099036
  Iterations, force evaluations = 5 10

MPI task timing breakdown:
Section |  min time  |  avg time  |  max time  |%varavg| %total
---------------------------------------------------------------
Pair    | 0.00010636 | 0.0085637  | 0.033645   |  10.2 |  4.78
Bond    | 8.938e-06  | 0.00016202 | 0.00074393 |   0.0 |  0.09
Neigh   | 0.093998   | 0.097089   | 0.10001    |   0.4 | 54.21
Comm    | 0.012562   | 0.035411   | 0.048818   |   5.1 | 19.77
Output  | 0          | 0          | 0          |   0.0 |  0.00
Modify  | 0.00012322 | 0.00065603 | 0.0015923  |   0.0 |  0.37
Other   |            | 0.0372     |            |       | 20.77

Nlocal:        3551.23 ave        6811 max        1026 min
Histogram: 20 114 26 32 8 0 128 0 0 32
Nghost:        18054.1 ave       40728 max        7687 min
Histogram: 64 88 50 10 88 4 24 24 0 8
Neighs:        35779.3 ave      104916 max           0 min
Histogram: 200 0 0 0 10 9 28 48 34 31

Total # of neighbors = 12880537
Ave neighs/atom = 10.075183
Ave special neighs/atom = 0.17960611
Neighbor list builds = 2
Dangerous builds = 1
Generated 0 of 15 mixed pair_coeff terms from geometric mixing rule
Last active /omp style is bond_style fene/omp
WARNING: More than one fix rigid (src/RIGID/fix_rigid.cpp:712)
WARNING: More than one fix rigid (src/RIGID/fix_rigid.cpp:712)
WARNING: More than one fix rigid (src/RIGID/fix_rigid.cpp:712)
Setting up Verlet run ...
  Unit style    : lj
  Current step  : 2005
  Time step     : 0.005
Per MPI rank memory allocation (min/avg/max) = 16.64 | 28.09 | 40.33 Mbytes
   Step     c_mobile_temp      PotEng         KinEng         TotEng         Press          Volume           Lx             Ly             Lz      
      2005   0.82867149    -0.066002104    0.290803       0.22480089     0.074374455    792673.82      77.269564      77.269564      132.76316    
WARNING: Lost atoms: original 1278442 current 1278441
For more information see https://docs.lammps.org/err0008 (src/thermo.cpp:532)
      7005   0              0.04308074     0              0.04308074    -1.3858132      792673.82      77.269564      77.269564      132.76316    
Loop time of 78.6522 on 360 procs for 5000 steps with 1278441 atoms

Performance: 27462.689 tau/day, 63.571 timesteps/s, 81.272 Matom-step/s
99.1% CPU use with 360 MPI tasks x 1 OpenMP threads

MPI task timing breakdown:
Section |  min time  |  avg time  |  max time  |%varavg| %total
---------------------------------------------------------------
Pair    | 0.024019   | 1.9503     | 5.3101     | 147.8 |  2.48
Bond    | 0.0031502  | 0.027277   | 0.096028   |  17.7 |  0.03
Neigh   | 55.032     | 56.622     | 58.254     |   9.6 | 71.99
Comm    | 8.672      | 14.706     | 18.709     |  64.2 | 18.70
Output  | 0.049672   | 0.19524    | 0.35295    |  23.0 |  0.25
Modify  | 2.5807     | 4.3472     | 7.4101     |  44.6 |  5.53
Other   |            | 0.8044     |            |       |  1.02

Nlocal:        3551.22 ave        6844 max        1026 min
Histogram: 18 142 2 25 13 0 120 8 0 32
Nghost:          18114 ave       41060 max        7712 min
Histogram: 64 86 54 9 87 4 25 23 0 8
Neighs:        31939.4 ave       88465 max           0 min
Histogram: 197 3 0 0 2 13 15 52 39 39

Total # of neighbors = 11498174
Ave neighs/atom = 8.9939027
Ave special neighs/atom = 0.17960625
Neighbor list builds = 1157
Dangerous builds = 253
========================================
Phase 3a: Thermalizing before initial capture
========================================
Generated 0 of 15 mixed pair_coeff terms from geometric mixing rule
Last active /omp style is bond_style fene/omp
WARNING: More than one fix rigid (src/RIGID/fix_rigid.cpp:712)
WARNING: More than one fix rigid (src/RIGID/fix_rigid.cpp:712)
WARNING: More than one fix rigid (src/RIGID/fix_rigid.cpp:712)
Setting up Verlet run ...
  Unit style    : lj
  Current step  : 7005
  Time step     : 0.005
Per MPI rank memory allocation (min/avg/max) = 16.04 | 26.49 | 38.42 Mbytes
   Step     c_mobile_temp      PotEng         KinEng         TotEng         Press          Volume           Lx             Ly             Lz      
      7005   0              0.04308074     0              0.04308074    -1.3858133      792673.82      77.269564      77.269564      132.76316    
Loop time of 1.22663e-05 on 360 procs for 0 steps with 1278441 atoms

111.7% CPU use with 360 MPI tasks x 1 OpenMP threads

MPI task timing breakdown:
Section |  min time  |  avg time  |  max time  |%varavg| %total
---------------------------------------------------------------
Pair    | 0          | 0          | 0          |   0.0 |  0.00
Bond    | 0          | 0          | 0          |   0.0 |  0.00
Neigh   | 0          | 0          | 0          |   0.0 |  0.00
Comm    | 0          | 0          | 0          |   0.0 |  0.00
Output  | 0          | 0          | 0          |   0.0 |  0.00
Modify  | 0          | 0          | 0          |   0.0 |  0.00
Other   |            | 1.227e-05  |            |       |100.00

Nlocal:        3551.22 ave        6844 max        1026 min
Histogram: 18 142 2 25 13 0 121 7 0 32
Nghost:        18113.8 ave       41058 max        7712 min
Histogram: 64 86 54 9 87 4 25 23 0 8
Neighs:        31949.9 ave       88378 max           0 min
Histogram: 198 2 0 0 2 13 15 52 39 39

Total # of neighbors = 11501973
Ave neighs/atom = 8.9968743
Ave special neighs/atom = 0.17960625
Neighbor list builds = 0
Dangerous builds = 0
>>> Pre-thermalization T = 0
Generated 0 of 15 mixed pair_coeff terms from geometric mixing rule
Last active /omp style is bond_style fene/omp
WARNING: More than one fix rigid (src/RIGID/fix_rigid.cpp:712)
WARNING: More than one fix rigid (src/RIGID/fix_rigid.cpp:712)
WARNING: More than one fix rigid (src/RIGID/fix_rigid.cpp:712)
Setting up Verlet run ...
  Unit style    : lj
  Current step  : 7005
  Time step     : 0.005
Per MPI rank memory allocation (min/avg/max) = 16.04 | 26.49 | 38.42 Mbytes
   Step     c_mobile_temp      PotEng         KinEng         TotEng         Press          Volume           Lx             Ly             Lz      
      7005   0              0.04308074     0              0.04308074    -1.3858133      792673.82      77.269564      77.269564      132.76316    
     10000   0.52117159     0.12001898     0.18289258     0.30291157     0.27193813     792673.82      77.269564      77.269564      132.76316    
     20000   0.9922718      0.1851283      0.34821383     0.53334213     0.19140309     792673.82      77.269564      77.269564      132.76316    
     27005   1.0020946      0.18971381     0.3516609      0.54137471     0.069928319    792673.82      77.269564      77.269564      132.76316    
Loop time of 253.226 on 360 procs for 20000 steps with 1278441 atoms

Performance: 34119.782 tau/day, 78.981 timesteps/s, 100.973 Matom-step/s
99.1% CPU use with 360 MPI tasks x 1 OpenMP threads

MPI task timing breakdown:
Section |  min time  |  avg time  |  max time  |%varavg| %total
---------------------------------------------------------------
Pair    | 0.15015    | 7.9057     | 18.096     | 238.9 |  3.12
Bond    | 0.012226   | 0.10702    | 0.32935    |  34.1 |  0.04
Neigh   | 167.39     | 172.07     | 177.44     |  17.7 | 67.95
Comm    | 36.053     | 55.271     | 69.449     | 111.2 | 21.83
Output  | 0.00048372 | 0.00052502 | 0.0006149  |   0.0 |  0.00
Modify  | 9.7306     | 15.276     | 25.472     |  84.6 |  6.03
Other   |            | 2.592      |            |       |  1.02

Nlocal:        3551.22 ave        7023 max        1026 min
Histogram: 38 122 2 28 10 0 111 17 0 32
Nghost:          18217 ave       42409 max        6608 min
Histogram: 64 65 71 15 81 8 32 16 0 8
Neighs:          32069 ave       69855 max         521 min
Histogram: 49 107 44 0 0 2 30 15 32 81

Total # of neighbors = 11544857
Ave neighs/atom = 9.0304183
Ave special neighs/atom = 0.17960625
Neighbor list builds = 3268
Dangerous builds = 0
>>> Post-thermalization T = 1.0020945943887591412
WARNING: Detected non-ASCII characters in input. Will try to continue by replacing with ASCII equivalents where known. (src/input.cpp:478)
Rg_xx = 228.206879715335  †’  Lx_rg = 52.330512672665697949
Rg_yy = 223.370972940949  †’  Ly_rg = 51.773078673103697156
Rg_zz = 760.251378091235  †’  Lz_rg = 95.514483389142696979
BB:  Lx=54.430711197050996475 Ly=52.645220992708196661 Lz=103.0518288970259988
hw_x = 27.1917320205552
hw_y = 26.902080817823
hw_z = 49.6307814266067
>>> Initial gel thickness (Rg): L0 = 95.5144833891427
>>> Initial gel thickness (BB): L0 = 103.0518288970259988
========================================
Phase 3b: Production €” piston forcing
========================================
  1 rigid bodies with 63221 atoms
WARNING: Temperature for fix modify is not for group all (src/fix_nh.cpp:1402)
>>> Starting Phase 3 production run (nsteps = 50000)
>>> compression_mode = 1
Generated 0 of 15 mixed pair_coeff terms from geometric mixing rule
Last active /omp style is bond_style fene/omp
WARNING: More than one fix rigid (src/RIGID/fix_rigid.cpp:712)
WARNING: More than one fix rigid (src/RIGID/fix_rigid.cpp:712)
WARNING: More than one fix rigid (src/RIGID/fix_rigid.cpp:712)
Setting up Verlet run ...
  Unit style    : lj
  Current step  : 27005
  Time step     : 0.005
Per MPI rank memory allocation (min/avg/max) = 19.1 | 32.83 | 47.45 Mbytes
   Step     c_mobile_temp      PotEng         KinEng         TotEng         Press          Volume           Lx             Ly             Lz      
     27005   1.0020946      0.18971381     0.3516609      0.54137471     0.071247184    792673.82      77.269564      77.269564      132.76316    
>>> gel_strain = -1.1753021856243499599 %
     30000   1.000419       0.19387775     0.3510729      0.54495065    -0.047712099    792673.82      77.269564      77.269564      132.76316    
>>> gel_strain = -0.47330211117280102107 %
     40000   1.0000378      0.19222095     0.3509391      0.54316005     0.062323145    792673.82      77.269564      77.269564      132.76316    
>>> gel_strain = -0.51528224741060602021 %
     50000   1.0016765      0.18836913     0.35151417     0.5398833     -0.096001025    792673.82      77.269564      77.269564      132.76316    
>>> gel_strain = -0.78530966894782705534 %
     60000   0.99916814     0.18882755     0.35063393     0.53946148    -0.065256631    792673.82      77.269564      77.269564      132.76316    
>>> gel_strain = -0.63592947048766901297 %
     70000   0.99721835     0.19016854     0.3499497      0.54011824     0.12822781     792673.82      77.269564      77.269564      132.76316    
     77005   1.0020416      0.19210368     0.35164231     0.54374599     0.014145305    792673.82      77.269564      77.269564      132.76316    
Loop time of 965.346 on 360 procs for 50000 steps with 1278441 atoms

Performance: 22375.394 tau/day, 51.795 timesteps/s, 66.217 Matom-step/s
99.1% CPU use with 360 MPI tasks x 1 OpenMP threads

MPI task timing breakdown:
Section |  min time  |  avg time  |  max time  |%varavg| %total
---------------------------------------------------------------
Pair    | 5.9804     | 87.464     | 201.49     | 552.8 |  9.06
Bond    | 1.5159     | 15.634     | 45.361     | 218.4 |  1.62
Neigh   | 444.07     | 456.53     | 470.46     |  28.6 | 47.29
Comm    | 130.33     | 249.86     | 366.71     | 357.2 | 25.88
Output  | 0.026071   | 0.12774    | 0.23825    |  21.5 |  0.01
Modify  | 90.437     | 131.86     | 189.83     | 170.1 | 13.66
Other   |            | 23.88      |            |       |  2.47

Nlocal:        3551.22 ave        7045 max        1026 min
Histogram: 32 128 2 27 11 0 119 9 0 32
Nghost:        18216.9 ave       42337 max        6870 min
Histogram: 64 70 66 16 81 7 31 17 0 8
Neighs:        32033.7 ave       68137 max         589 min
Histogram: 45 110 45 0 0 0 30 3 32 95

Total # of neighbors = 11532148
Ave neighs/atom = 9.0204773
Ave special neighs/atom = 0.17960625
Neighbor list builds = 8326
Dangerous builds = 0
>>> 10% compression reached (or nsteps exhausted)
>>> Freezing piston and starting stress relaxation
  1 rigid bodies with 63221 atoms
Generated 0 of 15 mixed pair_coeff terms from geometric mixing rule
Last active /omp style is bond_style fene/omp
WARNING: More than one fix rigid (src/RIGID/fix_rigid.cpp:712)
WARNING: More than one fix rigid (src/RIGID/fix_rigid.cpp:712)
WARNING: More than one fix rigid (src/RIGID/fix_rigid.cpp:712)
Setting up Verlet run ...
  Unit style    : lj
  Current step  : 77005
  Time step     : 0.005
Per MPI rank memory allocation (min/avg/max) = 21.9 | 38.82 | 56.12 Mbytes
   Step     c_mobile_temp      PotEng         KinEng         TotEng         Press          Volume           Lx             Ly             Lz      
     77005   1.0020416      0.19210368     0.35164231     0.54374599     0.019864443    792673.82      77.269564      77.269564      132.76316    
>>> gel_strain = -0.78234365322018395439 %
     80000   1.0014401      0.19488209     0.35143122     0.54631331     0.1096498      792673.82      77.269564      77.269564      132.76316    
>>> gel_strain = -0.72606643793639602524 %
     90000   0.99930426     0.19340367     0.3506817      0.54408537     0.10015606     792673.82      77.269564      77.269564      132.76316    
>>> gel_strain = -0.81816857649656704599 %
    100000   0.99921802     0.19159601     0.35065144     0.54224745     0.11982116     792673.82      77.269564      77.269564      132.76316    
>>> gel_strain = -0.79059726215818704187 %
    110000   0.99899869     0.19347335     0.35057447     0.54404782     0.096795039    792673.82      77.269564      77.269564      132.76316    
>>> gel_strain = -0.85158230197438500308 %
    120000   1.0025717      0.19078073     0.35182834     0.54260907    -0.034019158    792673.82      77.269564      77.269564      132.76316    
    127005   1.0016282      0.19050174     0.35149722     0.54199896     0.10211766     792673.82      77.269564      77.269564      132.76316    
Loop time of 676.919 on 360 procs for 50000 steps with 1278441 atoms

Performance: 31909.263 tau/day, 73.864 timesteps/s, 94.431 Matom-step/s
99.1% CPU use with 360 MPI tasks x 1 OpenMP threads

MPI task timing breakdown:
Section |  min time  |  avg time  |  max time  |%varavg| %total
---------------------------------------------------------------
Pair    | 0.66485    | 20.161     | 42.168     | 343.6 |  2.98
Bond    | 0.062636   | 0.44641    | 1.1651     |  43.7 |  0.07
Neigh   | 442.09     | 454.32     | 468.39     |  28.3 | 67.12
Comm    | 93.566     | 138.11     | 173.69     | 164.6 | 20.40
Output  | 0.025493   | 0.09142    | 0.15149    |  13.5 |  0.01
Modify  | 42.29      | 56.772     | 78.793     | 108.2 |  8.39
Other   |            | 7.015      |            |       |  1.04

Nlocal:        3551.22 ave        7031 max        1026 min
Histogram: 32 128 2 29 9 0 114 14 0 32
Nghost:          18218 ave       42413 max        6906 min
Histogram: 64 71 65 16 81 7 33 15 0 8
Neighs:        32040.4 ave       67088 max         603 min
Histogram: 46 103 51 0 0 0 29 3 30 98

Total # of neighbors = 11534530
Ave neighs/atom = 9.0223405
Ave special neighs/atom = 0.17960625
Neighbor list builds = 8310
Dangerous builds = 0
========================================
Simulation complete
========================================
System init for write_data ...
Generated 0 of 15 mixed pair_coeff terms from geometric mixing rule
Last active /omp style is bond_style fene/omp
WARNING: More than one fix rigid (src/RIGID/fix_rigid.cpp:712)
WARNING: More than one fix rigid (src/RIGID/fix_rigid.cpp:712)
WARNING: More than one fix rigid (src/RIGID/fix_rigid.cpp:712)
WARNING: Not all mixed pair coeffs generated from mixing. Use write_data with 'pair ij' option to store all pair coeffs. (src/write_data.cpp:364)
Total wall time: 0:33:59
======================================
Running post-processing...
======================================
Generating convergence plot...
Generating stress profiles...
Found data file: ./final_flow_walled_slab_support_5beads_tall_4_1.0_1.05_15000000_1.0_1.05_50000.data
Stress profile saved to ./output_plots/walled_slab_support_5beads_tall_4_1.0_1.05_15000000_1.0_1.05_50000_stress.png
No volume data found for walled_slab_support_5beads_tall_4_1.0_1.05_15000000_1.0_1.05_50000, skipping volume fraction plots
Generating piston plots...
Read 20 position points, 20 velocity points
Piston plot saved to ./output_plots/walled_slab_support_5beads_tall_4_1.0_1.05_15000000_1.0_1.05_50000_piston.png

=== Piston Summary ===
Initial position: 121.9108
Final position:   121.9108
Total displacement: 0.0000
Steady-state velocity: 0.00e+00 Â± 0.00e+00
Generating computational efficiency plot...
Found data file: ./data_files/walled_slab_support_5beads_tall_4_1.0_1.05_15000000.data
Mobile atoms: 1152000
======================================
Done! Results are in: /jet/home/dpollard/Documents/lammps_runs/slab_with_flow_walled_slab_support_5beads_tall_4_1.0_1.05_15000000_1.0_1.05_20260216_172048
======================================
