======================================
Working directory: /jet/home/dpollard/Documents/lammps_runs/slab_with_flow_walled_slab_support_5beads_tall_3_1.5_1.4_20000000_1.0_1.4_20260127_025719
Trajectory directory (scratch): /ocean/projects/chm250028p/dpollard/lammps_trajectories/slab_with_flow_walled_slab_support_5beads_tall_3_1.5_1.4_20000000_1.0_1.4_20260127_025719
======================================
Running LAMMPS in slab_with_flow with:
  dataname=walled_slab_support_5beads_tall_3_1.5_1.4_20000000
  epsSS=1.0, epsSP=1.4
  nsteps=2000000, oldsteps=0, totsteps=2000000
SLURM tasks per node: 120
SLURM CPUs per task: 1
SLURM_GPUS_ON_NODE: 
GPUs allocated: 
Running CPU-only with 480 tasks
LAMMPS (22 Jul 2025)
  using 1 OpenMP thread(s) per MPI task
using multi-threaded neighbor list subroutines
Reading data file ...
  orthogonal box = (-4.8877761 -4.8877761 -7.0788481) to (74.487776 74.487776 107.87885)
  6 by 8 by 10 MPI processor grid
  reading atoms ...
  1622491 atoms
  scanning bonds ...
  3 = max bonds/atom
  orthogonal box = (-4.8877761 -4.8877761 -7.0788481) to (74.487776 74.487776 107.87885)
  6 by 8 by 10 MPI processor grid
  reading bonds ...
  146984 bonds
Finding 1-2 1-3 1-4 neighbors ...
  special bond factors lj:    0        0        0       
  special bond factors coul:  0        0        0       
     4 = max # of 1-2 neighbors
     4 = max # of 1-3 neighbors
     8 = max # of 1-4 neighbors
    12 = max # of special neighbors
  special bonds CPU = 1.013 seconds
  read_data CPU = 5.434 seconds
========================================
Flow simulation: walled_slab_support_5beads_tall_3_1.5_1.4_20000000
Interaction: epsSS=1.0, epsSP=1.4
Production steps: 2000000
Piston force per bead: -0.01
========================================
129793 atoms in group polymer
389338 atoms in group solvent
69948 atoms in group support
69948 atoms in group piston
963464 atoms in group walls
519131 atoms in group mobile
659027 atoms in group gel_system
Finding 1-2 1-3 1-4 neighbors ...
  special bond factors lj:    0        1        1       
  special bond factors coul:  0        1        1       
     4 = max # of 1-2 neighbors
    12 = max # of special neighbors
  special bonds CPU = 0.060 seconds
  1 rigid bodies with 69948 atoms
  1 rigid bodies with 69948 atoms
  1 rigid bodies with 963464 atoms
========================================
Phase 1: Soft push to resolve solvent-piston overlaps
========================================
Generated 0 of 15 mixed pair_coeff terms from geometric mixing rule
Hybrid pair style last /omp style soft
Last active /omp style is bond_style fene/omp
WARNING: More than one fix rigid (src/RIGID/fix_rigid.cpp:712)
WARNING: More than one fix rigid (src/RIGID/fix_rigid.cpp:712)
WARNING: More than one fix rigid (src/RIGID/fix_rigid.cpp:712)
Neighbor list info ...
  update: every = 1 steps, delay = 0 steps, check = yes
  max neighbors/atom: 2000, page size: 100000
  master list distance cutoff = 2.8
  ghost atom cutoff = 5
  binsize = 1.4, bins = 57 57 83
  2 neighbor lists, perpetual/occasional/extra = 2 0 0
  (1) pair lj/cut, perpetual
      attributes: half, newton on, omp, cut 2.8
      pair build: half/bin/newton/omp
      stencil: half/bin/3d
      bin: standard
  (2) pair soft, perpetual, skip from (1)
      attributes: half, newton on, omp
      pair build: skip/omp
      stencil: none
      bin: none
Setting up Verlet run ...
  Unit style    : lj
  Current step  : 0
  Time step     : 0.005
Per MPI rank memory allocation (min/avg/max) = 17.94 | 28.43 | 52.16 Mbytes
   Step          Temp          PotEng         KinEng         TotEng         Press          Volume           Lx             Ly             Lz      
         0   0              0.085546292    0              0.085546292   -0.02040765     724288.47      79.375552      79.375552      114.9577     
      1000   1.1062827      0.03400858     0.53095319     0.56496177     2.8646155      724288.47      79.375552      79.375552      114.9577     
Loop time of 43.5069 on 480 procs for 1000 steps with 1622491 atoms

Performance: 9929.452 tau/day, 22.985 timesteps/s, 37.293 Matom-step/s
99.2% CPU use with 480 MPI tasks x 1 OpenMP threads

MPI task timing breakdown:
Section |  min time  |  avg time  |  max time  |%varavg| %total
---------------------------------------------------------------
Pair    | 1.1122     | 1.4329     | 2.2436     |  13.5 |  3.29
Bond    | 0.0013943  | 0.020046   | 0.03734    |   5.8 |  0.05
Neigh   | 34.531     | 35.855     | 36.928     |  10.8 | 82.41
Comm    | 1.2936     | 3.717      | 5.8997     |  59.5 |  8.54
Output  | 0.0046156  | 0.025728   | 0.04347    |   7.1 |  0.06
Modify  | 0.93918    | 2.1291     | 3.3864     |  40.0 |  4.89
Other   |            | 0.3275     |            |       |  0.75

Nlocal:        3380.19 ave        7969 max        1253 min
Histogram: 192 10 38 1 95 74 31 30 5 4
Nghost:          19749 ave       42593 max        7026 min
Histogram: 192 0 48 0 0 117 43 56 16 8
Neighs:        89832.7 ave      171536 max       46505 min
Histogram: 43 137 79 54 51 35 35 22 16 8

Total # of neighbors = 43119679
Ave neighs/atom = 26.576221
Ave special neighs/atom = 0.18118313
Neighbor list builds = 487
Dangerous builds = 0
Generated 0 of 15 mixed pair_coeff terms from geometric mixing rule
Hybrid pair style last /omp style soft
Last active /omp style is bond_style fene/omp
WARNING: More than one fix rigid (src/RIGID/fix_rigid.cpp:712)
WARNING: More than one fix rigid (src/RIGID/fix_rigid.cpp:712)
WARNING: More than one fix rigid (src/RIGID/fix_rigid.cpp:712)
Setting up cg style minimization ...
  Unit style    : lj
  Current step  : 1000
Per MPI rank memory allocation (min/avg/max) = 20.46 | 32.21 | 58.79 Mbytes
   Step          Temp          PotEng         KinEng         TotEng         Press          Volume           Lx             Ly             Lz      
      1000   1.1062827      0.03400858     0.53095319     0.56496177     2.8646155      724288.47      79.375552      79.375552      114.9577     
      1607   1.1062827     -0.51634745     0.53095319     0.014605743   -0.91356664     724288.47      79.375552      79.375552      114.9577     
Loop time of 16.4638 on 480 procs for 607 steps with 1622491 atoms

99.2% CPU use with 480 MPI tasks x 1 OpenMP threads

Minimization stats:
  Stopping criterion = energy tolerance
  Energy initial, next-to-last, final = 
    0.0340085795126973 -0.516297533772569 -0.516347446320083
  Force two-norm initial, final = 30659.11 559.99789
  Force max component initial, final = 1585.7505 140.21418
  Final line search alpha, max atom move = 0.00055695274 0.078092671
  Iterations, force evaluations = 607 684

MPI task timing breakdown:
Section |  min time  |  avg time  |  max time  |%varavg| %total
---------------------------------------------------------------
Pair    | 0.24224    | 0.79652    | 1.5331     |  26.1 |  4.84
Bond    | 0.00059801 | 0.010662   | 0.018874   |   5.0 |  0.06
Neigh   | 11.931     | 12.437     | 12.833     |   7.0 | 75.54
Comm    | 0.55287    | 2.074      | 3.3848     |  46.8 | 12.60
Output  | 0          | 0          | 0          |   0.0 |  0.00
Modify  | 0.0086226  | 0.066117   | 0.20621    |  22.7 |  0.40
Other   |            | 1.08       |            |       |  6.56

Nlocal:        3380.19 ave        7951 max        1362 min
Histogram: 192 24 24 9 87 78 31 28 3 4
Nghost:          19753 ave       42291 max        7399 min
Histogram: 192 0 48 0 0 116 44 56 16 8
Neighs:        64007.2 ave      174080 max       12193 min
Histogram: 36 73 70 241 19 8 8 6 7 12

Total # of neighbors = 30723436
Ave neighs/atom = 18.935967
Ave special neighs/atom = 0.18118313
Neighbor list builds = 183
Dangerous builds = 1
Soft push complete - overlaps resolved
========================================
Phase 2: Switching to full LJ interactions
========================================
Generated 0 of 15 mixed pair_coeff terms from geometric mixing rule
Last active /omp style is bond_style fene/omp
WARNING: More than one fix rigid (src/RIGID/fix_rigid.cpp:712)
WARNING: More than one fix rigid (src/RIGID/fix_rigid.cpp:712)
WARNING: More than one fix rigid (src/RIGID/fix_rigid.cpp:712)
Neighbor list info ...
  update: every = 1 steps, delay = 0 steps, check = yes
  max neighbors/atom: 2000, page size: 100000
  master list distance cutoff = 2.8
  ghost atom cutoff = 5
  binsize = 1.4, bins = 57 57 83
  1 neighbor lists, perpetual/occasional/extra = 1 0 0
  (1) pair lj/cut/omp, perpetual
      attributes: half, newton on, omp
      pair build: half/bin/newton/omp
      stencil: half/bin/3d
      bin: standard
Setting up cg style minimization ...
  Unit style    : lj
  Current step  : 1607
Per MPI rank memory allocation (min/avg/max) = 19.83 | 31.24 | 57 Mbytes
   Step          Temp          PotEng         KinEng         TotEng         Press          Volume           Lx             Ly             Lz      
      1607   1.1062827     -0.51840037     0.53095319     0.012552821   -0.91142906     724288.47      79.375552      79.375552      114.9577     
      1608   1.1062827     -0.51840397     0.53095319     0.012549224   -0.91463298     724288.47      79.375552      79.375552      114.9577     
Loop time of 0.0730786 on 480 procs for 1 steps with 1622491 atoms

99.1% CPU use with 480 MPI tasks x 1 OpenMP threads

Minimization stats:
  Stopping criterion = energy tolerance
  Energy initial, next-to-last, final = 
     -0.51840036821678  -0.51840036821678  -0.51840396532548
  Force two-norm initial, final = 1292.8169 391.24777
  Force max component initial, final = 258.22334 46.451747
  Final line search alpha, max atom move = 4.8407709e-05 0.0022486226
  Iterations, force evaluations = 1 6

MPI task timing breakdown:
Section |  min time  |  avg time  |  max time  |%varavg| %total
---------------------------------------------------------------
Pair    | 0.0014415  | 0.0070585  | 0.0143     |   3.5 |  9.66
Bond    | 6.22e-06   | 0.00010944 | 0.00035166 |   0.0 |  0.15
Neigh   | 0          | 0          | 0          |   0.0 |  0.00
Comm    | 0.0057765  | 0.015787   | 0.02607    |   4.4 | 21.60
Output  | 0          | 0          | 0          |   0.0 |  0.00
Modify  | 5.5975e-05 | 0.00033366 | 0.0013446  |   0.0 |  0.46
Other   |            | 0.04979    |            |       | 68.13

Nlocal:        3380.19 ave        7951 max        1362 min
Histogram: 192 24 24 9 87 78 31 28 3 4
Nghost:        19752.9 ave       42291 max        7398 min
Histogram: 192 0 48 0 0 115 45 56 16 8
Neighs:        46344.4 ave       73730 max        6591 min
Histogram: 31 37 37 68 33 53 5 8 73 135

Total # of neighbors = 22245323
Ave neighs/atom = 13.710599
Ave special neighs/atom = 0.18118313
Neighbor list builds = 0
Dangerous builds = 0
Generated 0 of 15 mixed pair_coeff terms from geometric mixing rule
Last active /omp style is bond_style fene/omp
WARNING: More than one fix rigid (src/RIGID/fix_rigid.cpp:712)
WARNING: More than one fix rigid (src/RIGID/fix_rigid.cpp:712)
WARNING: More than one fix rigid (src/RIGID/fix_rigid.cpp:712)
Setting up Verlet run ...
  Unit style    : lj
  Current step  : 1608
  Time step     : 0.005
Per MPI rank memory allocation (min/avg/max) = 18.7 | 29.08 | 52.5 Mbytes
   Step          Temp          PotEng         KinEng         TotEng         Press          Volume           Lx             Ly             Lz      
      1608   1.1062827     -0.51840397     0.53095319     0.012549224   -0.17580379     724288.47      79.375552      79.375552      114.9577     
WARNING: Lost atoms: original 1622491 current 1622490
For more information see https://docs.lammps.org/err0008 (src/thermo.cpp:532)
      6608   8.6104707e-06 -0.67602324     4.1325419e-06 -0.67601911    -1.7421015      724288.47      79.375552      79.375552      114.9577     
Loop time of 56.5065 on 480 procs for 5000 steps with 1622490 atoms

Performance: 38225.674 tau/day, 88.485 timesteps/s, 143.567 Matom-step/s
99.1% CPU use with 480 MPI tasks x 1 OpenMP threads

MPI task timing breakdown:
Section |  min time  |  avg time  |  max time  |%varavg| %total
---------------------------------------------------------------
Pair    | 0.40799    | 2.8016     | 4.0196     |  53.6 |  4.96
Bond    | 0.0035581  | 0.028309   | 0.05394    |   7.0 |  0.05
Neigh   | 30.451     | 31.842     | 32.976     |  12.0 | 56.35
Comm    | 4.755      | 13.326     | 21.072     | 121.6 | 23.58
Output  | 0.020632   | 0.1275     | 0.21592    |  16.0 |  0.23
Modify  | 3.4358     | 7.4534     | 13.755     | 118.6 | 13.19
Other   |            | 0.9285     |            |       |  1.64

Nlocal:        3380.19 ave        7881 max        1320 min
Histogram: 192 21 27 0 96 62 42 28 8 4
Nghost:          19740 ave       42145 max        7429 min
Histogram: 192 0 48 0 0 97 63 56 16 8
Neighs:        46098.9 ave       65289 max        4348 min
Histogram: 11 22 13 20 38 61 67 41 59 148

Total # of neighbors = 22127460
Ave neighs/atom = 13.637964
Ave special neighs/atom = 0.18118324
Neighbor list builds = 481
Dangerous builds = 213
========================================
Phase 3: Production flow with piston forcing
========================================
  1 rigid bodies with 69948 atoms
WARNING: Temperature for fix modify is not for group all (src/fix_nh.cpp:1402)
Generated 0 of 15 mixed pair_coeff terms from geometric mixing rule
Last active /omp style is bond_style fene/omp
WARNING: More than one fix rigid (src/RIGID/fix_rigid.cpp:712)
WARNING: More than one fix rigid (src/RIGID/fix_rigid.cpp:712)
WARNING: More than one fix rigid (src/RIGID/fix_rigid.cpp:712)
Setting up Verlet run ...
  Unit style    : lj
  Current step  : 6608
  Time step     : 0.005
Per MPI rank memory allocation (min/avg/max) = 17.32 | 27.47 | 50.36 Mbytes
   Step          Temp          PotEng         KinEng         TotEng         Press          Volume           Lx             Ly             Lz      
      6608   8.6104873e-06 -0.67602324     4.1325419e-06 -0.67601911    -1.6975344      724288.47      79.375552      79.375552      114.9577     
Loop time of 1.14772e-05 on 480 procs for 0 steps with 1622490 atoms

111.3% CPU use with 480 MPI tasks x 1 OpenMP threads

MPI task timing breakdown:
Section |  min time  |  avg time  |  max time  |%varavg| %total
---------------------------------------------------------------
Pair    | 0          | 0          | 0          |   0.0 |  0.00
Bond    | 0          | 0          | 0          |   0.0 |  0.00
Neigh   | 0          | 0          | 0          |   0.0 |  0.00
Comm    | 0          | 0          | 0          |   0.0 |  0.00
Output  | 0          | 0          | 0          |   0.0 |  0.00
Modify  | 0          | 0          | 0          |   0.0 |  0.00
Other   |            | 1.148e-05  |            |       |100.00

Nlocal:        3380.19 ave        7880 max        1319 min
Histogram: 192 21 27 0 96 62 42 28 8 4
Nghost:        19739.6 ave       42143 max        7436 min
Histogram: 192 0 48 0 0 97 63 56 16 8
Neighs:        46113.4 ave       65169 max        4363 min
Histogram: 11 22 13 20 37 62 66 39 59 151

Total # of neighbors = 22134423
Ave neighs/atom = 13.642255
Ave special neighs/atom = 0.18118324
Neighbor list builds = 0
Dangerous builds = 0
Rg_xx = 382.78346419218
Rg_yy = 378.724448174323
Rg_zz = 670.433084915074
hw_x = 31.695061499009
hw_y = 31.5265672376283
hw_z = 41.9462106518708
Generated 0 of 15 mixed pair_coeff terms from geometric mixing rule
Last active /omp style is bond_style fene/omp
WARNING: More than one fix rigid (src/RIGID/fix_rigid.cpp:712)
WARNING: More than one fix rigid (src/RIGID/fix_rigid.cpp:712)
WARNING: More than one fix rigid (src/RIGID/fix_rigid.cpp:712)
Setting up Verlet run ...
  Unit style    : lj
  Current step  : 6608
  Time step     : 0.005
Per MPI rank memory allocation (min/avg/max) = 20.33 | 33.23 | 62.37 Mbytes
   Step          Temp          PotEng         KinEng         TotEng         Press          Volume           Lx             Ly             Lz      
      6608   8.6104873e-06 -0.67602324     4.1325419e-06 -0.67601911    -1.6975344      724288.47      79.375552      79.375552      114.9577     
     10000   0.23946537    -0.64231908     0.1149297     -0.52738939    -0.43997255     724288.47      79.375552      79.375552      114.9577     
     20000   0.99775987    -0.38131867     0.47886773     0.097549066    0.35995887     724288.47      79.375552      79.375552      114.9577     
     30000   1.0011704     -0.38942384     0.48050458     0.091080744    0.79512737     724288.47      79.375552      79.375552      114.9577     
     40000   1.0010829     -0.39910172     0.48046258     0.081360861    0.77892211     724288.47      79.375552      79.375552      114.9577     
     50000   1.0012695     -0.3980462      0.48055216     0.082505957    0.78253537     724288.47      79.375552      79.375552      114.9577     
     60000   0.99918645    -0.3973617      0.47955241     0.082190709    0.5772142      724288.47      79.375552      79.375552      114.9577     
     70000   0.99870622    -0.39687149     0.47932193     0.082450431    0.95522436     724288.47      79.375552      79.375552      114.9577     
     80000   0.99901444    -0.39913963     0.47946985     0.080330222    0.79635794     724288.47      79.375552      79.375552      114.9577     
     90000   1.0010036     -0.39869092     0.48042453     0.081733609    0.48623512     724288.47      79.375552      79.375552      114.9577     
    100000   1.0003799     -0.39789674     0.48012517     0.08222843     0.65011823     724288.47      79.375552      79.375552      114.9577     
    110000   1.0010191     -0.39923525     0.48043199     0.081196734    0.591378       724288.47      79.375552      79.375552      114.9577     
    120000   0.99986565    -0.39830693     0.47987838     0.081571453    0.67091483     724288.47      79.375552      79.375552      114.9577     
    130000   1.0008183     -0.39990119     0.48033561     0.080434417    0.57682529     724288.47      79.375552      79.375552      114.9577     
    140000   0.9992718     -0.3970975      0.47959337     0.082495868    0.58180963     724288.47      79.375552      79.375552      114.9577     
    150000   0.99926957    -0.39675782     0.4795923      0.082834486    0.72609411     724288.47      79.375552      79.375552      114.9577     
    160000   0.99920389    -0.3962498      0.47956078     0.083310973    0.92996095     724288.47      79.375552      79.375552      114.9577     
    170000   1.0010931     -0.40028112     0.48046748     0.080186364    0.55718773     724288.47      79.375552      79.375552      114.9577     
    180000   1.0011889     -0.39817439     0.48051347     0.082339083    0.67346811     724288.47      79.375552      79.375552      114.9577     
    190000   0.99834569    -0.39770978     0.47914889     0.08143911     0.6646439      724288.47      79.375552      79.375552      114.9577     
    200000   1.0009164     -0.39682876     0.48038269     0.08355393     0.66650594     724288.47      79.375552      79.375552      114.9577     
    210000   0.99864623    -0.39942173     0.47929313     0.079871403    0.73509896     724288.47      79.375552      79.375552      114.9577     
    220000   1.0008878     -0.39905627     0.48036898     0.081312717    0.64193495     724288.47      79.375552      79.375552      114.9577     
    230000   0.99993523    -0.39976186     0.47991178     0.08014992     0.80709035     724288.47      79.375552      79.375552      114.9577     
    240000   1.0004894     -0.39675579     0.48017774     0.083421952    0.82705811     724288.47      79.375552      79.375552      114.9577     
    250000   1.0002151     -0.39677092     0.48004612     0.083275198    0.71964052     724288.47      79.375552      79.375552      114.9577     
    260000   1.0013768     -0.39713692     0.48060367     0.083466759    0.71151483     724288.47      79.375552      79.375552      114.9577     
    270000   0.99987045    -0.39970572     0.47988069     0.080174964    0.66297866     724288.47      79.375552      79.375552      114.9577     
    280000   1.0004932     -0.39842254     0.48017957     0.081757031    0.70539878     724288.47      79.375552      79.375552      114.9577     
    290000   0.99896831    -0.39869405     0.47944771     0.080753666    0.42228799     724288.47      79.375552      79.375552      114.9577     
    300000   1.001508      -0.39917329     0.48066663     0.081493333    0.62451295     724288.47      79.375552      79.375552      114.9577     
    310000   1.0001391     -0.39797964     0.48000961     0.08202997     0.56011107     724288.47      79.375552      79.375552      114.9577     
    320000   1.001108      -0.39831151     0.48047462     0.082163109    0.71153606     724288.47      79.375552      79.375552      114.9577     
    330000   0.99984965    -0.4004215      0.47987071     0.079449211    0.44476652     724288.47      79.375552      79.375552      114.9577     
    340000   0.99821702    -0.39841619     0.47908713     0.080670949    0.54579378     724288.47      79.375552      79.375552      114.9577     
    350000   0.99998049    -0.3965686      0.4799335      0.083364906    0.64352063     724288.47      79.375552      79.375552      114.9577     
    360000   1.0012652     -0.39755351     0.48055011     0.082996591    0.65271506     724288.47      79.375552      79.375552      114.9577     
    370000   0.99970421    -0.40002952     0.4798009      0.079771387    0.62911032     724288.47      79.375552      79.375552      114.9577     
    380000   0.99880672    -0.39830638     0.47937016     0.081063782    0.68389668     724288.47      79.375552      79.375552      114.9577     
    390000   0.99798284    -0.39984396     0.47897474     0.079130781    0.53721567     724288.47      79.375552      79.375552      114.9577     
    400000   0.99914156    -0.40122541     0.47953086     0.078305454    0.58658921     724288.47      79.375552      79.375552      114.9577     
    410000   0.99944378    -0.39856353     0.47967591     0.081112384    0.62101779     724288.47      79.375552      79.375552      114.9577     
    420000   1.0010635     -0.39806762     0.48045328     0.082385657    0.59549289     724288.47      79.375552      79.375552      114.9577     
    430000   0.99918308    -0.39915367     0.47955079     0.080397117    0.67484676     724288.47      79.375552      79.375552      114.9577     
    440000   1.000198      -0.39756449     0.48003787     0.082473376    0.75369711     724288.47      79.375552      79.375552      114.9577     
    450000   0.99999158    -0.39713013     0.47993883     0.082808701    0.73518462     724288.47      79.375552      79.375552      114.9577     
    460000   0.99833045    -0.39852693     0.47914158     0.080614653    0.40118434     724288.47      79.375552      79.375552      114.9577     
    470000   1.0002493     -0.39846281     0.48006251     0.081599696    0.65101478     724288.47      79.375552      79.375552      114.9577     
    480000   1.0002652     -0.39803129     0.48007015     0.082038862    0.82400504     724288.47      79.375552      79.375552      114.9577     
    490000   0.99924438    -0.40030844     0.47958021     0.079271769    0.89193492     724288.47      79.375552      79.375552      114.9577     
    500000   0.99929725    -0.39786639     0.47960558     0.08173919     0.65412611     724288.47      79.375552      79.375552      114.9577     
    510000   0.9979656     -0.39852642     0.47896647     0.080440052    0.68806243     724288.47      79.375552      79.375552      114.9577     
    520000   0.99904367    -0.39704337     0.47948388     0.082440507    0.89317592     724288.47      79.375552      79.375552      114.9577     
    530000   0.99834974    -0.39557132     0.47915084     0.083579521    0.77330604     724288.47      79.375552      79.375552      114.9577     
    540000   0.99871018    -0.39842555     0.47932383     0.08089828     0.6799718      724288.47      79.375552      79.375552      114.9577     
    550000   1.0008977     -0.39963375     0.4803737      0.080739951    0.77987445     724288.47      79.375552      79.375552      114.9577     
    560000   1.0010282     -0.39719174     0.48043634     0.083244598    0.65169911     724288.47      79.375552      79.375552      114.9577     
    570000   1.001897      -0.39666318     0.48085334     0.084190152    0.80195321     724288.47      79.375552      79.375552      114.9577     
    580000   0.99997072    -0.39834222     0.47992881     0.081586588    0.69489268     724288.47      79.375552      79.375552      114.9577     
    590000   1.0006043     -0.3984716      0.48023289     0.081761287    0.69539019     724288.47      79.375552      79.375552      114.9577     
    600000   1.0022109     -0.39825895     0.48100398     0.082745021    0.70574503     724288.47      79.375552      79.375552      114.9577     
    610000   1.0002685     -0.39765736     0.48007172     0.082414354    0.70497234     724288.47      79.375552      79.375552      114.9577     
    620000   0.99917351    -0.39873213     0.4795462      0.080814068    0.63361712     724288.47      79.375552      79.375552      114.9577     
    630000   1.0022818     -0.39808376     0.48103802     0.082954265    0.87249194     724288.47      79.375552      79.375552      114.9577     
    640000   0.99998465    -0.39867058     0.4799355      0.081264917    0.55144465     724288.47      79.375552      79.375552      114.9577     
    650000   1.0003798     -0.39854813     0.48012514     0.081577011    0.65922363     724288.47      79.375552      79.375552      114.9577     
    660000   0.99912121    -0.39900978     0.4795211      0.080511316    0.44495257     724288.47      79.375552      79.375552      114.9577     
    670000   1.0014774     -0.39851744     0.48065195     0.082134508    0.66847654     724288.47      79.375552      79.375552      114.9577     
    680000   0.99948927    -0.39818906     0.47969774     0.081508679    0.75022692     724288.47      79.375552      79.375552      114.9577     
    690000   1.0014214     -0.39898721     0.48062504     0.081637828    0.69130779     724288.47      79.375552      79.375552      114.9577     
    700000   0.99992086    -0.39943779     0.47990488     0.080467094    0.60312799     724288.47      79.375552      79.375552      114.9577     
    710000   0.99954713    -0.39854274     0.47972551     0.081182776    0.64340554     724288.47      79.375552      79.375552      114.9577     
    720000   1.0000385     -0.40041852     0.47996133     0.079542809    0.52719552     724288.47      79.375552      79.375552      114.9577     
    730000   0.99758333    -0.39876764     0.478783       0.080015365    0.63593354     724288.47      79.375552      79.375552      114.9577     
    740000   0.99930285    -0.39623019     0.47960827     0.083378086    0.759981       724288.47      79.375552      79.375552      114.9577     
    750000   0.99905467    -0.40060797     0.47948916     0.078881185    0.70012857     724288.47      79.375552      79.375552      114.9577     
    760000   0.99872738    -0.39873308     0.47933208     0.080599001    0.73792382     724288.47      79.375552      79.375552      114.9577     
    770000   0.99868806    -0.39765509     0.47931321     0.081658123    0.54315366     724288.47      79.375552      79.375552      114.9577     
    780000   1.0014198     -0.39936151     0.4806243      0.081262785    0.80987284     724288.47      79.375552      79.375552      114.9577     
    790000   0.99916661    -0.39575741     0.47954289     0.083785475    0.84650996     724288.47      79.375552      79.375552      114.9577     
    800000   1.0012628     -0.39926119     0.48054895     0.081287759    0.72726236     724288.47      79.375552      79.375552      114.9577     
    810000   0.99909036    -0.40042731     0.47950629     0.079078977    0.7509129      724288.47      79.375552      79.375552      114.9577     
    820000   1.0011998     -0.39885238     0.48051868     0.081666301    0.68545391     724288.47      79.375552      79.375552      114.9577     
    830000   1.0016543     -0.39694954     0.48073682     0.083787286    0.69481551     724288.47      79.375552      79.375552      114.9577     
    840000   1.000498      -0.39564868     0.48018188     0.084533197    0.96221367     724288.47      79.375552      79.375552      114.9577     
    850000   0.99658945    -0.39684942     0.478306       0.081456581    0.65868348     724288.47      79.375552      79.375552      114.9577     
    860000   1.0002337     -0.39878006     0.48005502     0.081274965    0.61403158     724288.47      79.375552      79.375552      114.9577     
    870000   0.99999973    -0.39815998     0.47994274     0.081782755    0.73705302     724288.47      79.375552      79.375552      114.9577     
    880000   1.0003012     -0.39941869     0.48008743     0.080668738    0.67074042     724288.47      79.375552      79.375552      114.9577     
    890000   0.99958482    -0.40043697     0.4797436      0.079306629    0.82268467     724288.47      79.375552      79.375552      114.9577     
    900000   1.0010143     -0.39831589     0.48042967     0.08211378     0.75950972     724288.47      79.375552      79.375552      114.9577     
    910000   0.99820344    -0.3973358      0.47908062     0.081744814    0.68640729     724288.47      79.375552      79.375552      114.9577     
    920000   0.99745032    -0.39841351     0.47871917     0.080305653    0.8145741      724288.47      79.375552      79.375552      114.9577     
    930000   0.99763638    -0.39718402     0.47880846     0.081624449    0.89356912     724288.47      79.375552      79.375552      114.9577     
    940000   0.99979856    -0.39889775     0.47984618     0.080948435    0.5618196      724288.47      79.375552      79.375552      114.9577     
    950000   1.0010378     -0.40004397     0.48044094     0.080396964    0.63118549     724288.47      79.375552      79.375552      114.9577     
    960000   0.99939517    -0.39952322     0.47965258     0.080129358    0.62015286     724288.47      79.375552      79.375552      114.9577     
    970000   0.9973412     -0.40040617     0.47866679     0.07826062     0.80655339     724288.47      79.375552      79.375552      114.9577     
    980000   0.9994445     -0.40030083     0.47967626     0.079375429    0.79210801     724288.47      79.375552      79.375552      114.9577     
    990000   0.99838972    -0.39927165     0.47917002     0.07989837     0.68111029     724288.47      79.375552      79.375552      114.9577     
   1000000   1.0015597     -0.39727667     0.48069143     0.083414757    0.76528831     724288.47      79.375552      79.375552      114.9577     
   1010000   0.99962024    -0.39991152     0.4797606      0.079849085    0.73107419     724288.47      79.375552      79.375552      114.9577     
   1020000   0.99957525    -0.39976024     0.47973901     0.079978775    0.64578994     724288.47      79.375552      79.375552      114.9577     
   1030000   0.99807131    -0.39831284     0.47901721     0.080704367    0.70510198     724288.47      79.375552      79.375552      114.9577     
   1040000   1.0014941     -0.39974187     0.48065993     0.080918066    0.50039849     724288.47      79.375552      79.375552      114.9577     
   1050000   1.0023203     -0.3986364      0.48105646     0.082420058    0.60953754     724288.47      79.375552      79.375552      114.9577     
   1060000   1.0000514     -0.39867039     0.47996756     0.081297171    0.7409687      724288.47      79.375552      79.375552      114.9577     
   1070000   0.9991154     -0.40072033     0.47951831     0.078797982    0.78147243     724288.47      79.375552      79.375552      114.9577     
   1080000   0.99960124    -0.39776381     0.47975149     0.08198768     0.681713       724288.47      79.375552      79.375552      114.9577     
   1090000   0.99918645    -0.39807948     0.47955241     0.081472933    0.51866055     724288.47      79.375552      79.375552      114.9577     
   1100000   0.99940325    -0.3983668      0.47965646     0.081289657    0.64894964     724288.47      79.375552      79.375552      114.9577     
   1110000   1.0021711     -0.40001932     0.48098489     0.080965567    0.73625206     724288.47      79.375552      79.375552      114.9577     
   1120000   0.99981536    -0.39827385     0.47985425     0.081580395    0.68201466     724288.47      79.375552      79.375552      114.9577     
   1130000   0.99962285    -0.3984339      0.47976185     0.081327958    0.68197743     724288.47      79.375552      79.375552      114.9577     
   1140000   1.0000987     -0.39758335     0.47999025     0.0824069      0.65869461     724288.47      79.375552      79.375552      114.9577     
   1150000   0.99907158    -0.3988521      0.47949727     0.080645172    0.70274535     724288.47      79.375552      79.375552      114.9577     
   1160000   1.0007656     -0.39929291     0.48031032     0.081017415    0.76461585     724288.47      79.375552      79.375552      114.9577     
   1170000   0.99987097    -0.39760762     0.47988094     0.082273318    0.83214014     724288.47      79.375552      79.375552      114.9577     
   1180000   0.9979758     -0.3969959      0.47897137     0.081975463    0.66937633     724288.47      79.375552      79.375552      114.9577     
   1190000   0.99853998    -0.39923327     0.47924214     0.080008871    0.84124407     724288.47      79.375552      79.375552      114.9577     
   1200000   0.99957976    -0.40066072     0.47974117     0.079080452    0.67388161     724288.47      79.375552      79.375552      114.9577     
   1210000   1.00091       -0.39960818     0.48037959     0.080771415    0.61275466     724288.47      79.375552      79.375552      114.9577     
   1220000   0.99803349    -0.40054677     0.47899906     0.078452288    0.53878568     724288.47      79.375552      79.375552      114.9577     
   1230000   0.99865823    -0.40001692     0.47929889     0.079281974    0.6361947      724288.47      79.375552      79.375552      114.9577     
   1240000   1.0006026     -0.40047879     0.48023207     0.079753282    0.55359355     724288.47      79.375552      79.375552      114.9577     
   1250000   0.99840556    -0.40049158     0.47917762     0.078686047    0.63456783     724288.47      79.375552      79.375552      114.9577     
   1260000   0.99727103    -0.39794431     0.47863312     0.080688805    0.77623341     724288.47      79.375552      79.375552      114.9577     
   1270000   0.99987966    -0.39876298     0.47988511     0.081122123    0.83385342     724288.47      79.375552      79.375552      114.9577     
   1280000   1.0001911     -0.39778002     0.4800346      0.082254577    0.78513814     724288.47      79.375552      79.375552      114.9577     
   1290000   1.0016157     -0.39842485     0.48071833     0.082293479    0.62128446     724288.47      79.375552      79.375552      114.9577     
   1300000   1.00014       -0.40000478     0.48001007     0.080005295    0.86063541     724288.47      79.375552      79.375552      114.9577     
   1310000   1.0009788     -0.3999876      0.48041264     0.080425036    0.80527209     724288.47      79.375552      79.375552      114.9577     
   1320000   1.0018341     -0.40102714     0.48082311     0.079795972    0.71336273     724288.47      79.375552      79.375552      114.9577     
   1330000   0.99916592    -0.40019393     0.47954256     0.079348626    0.6329129      724288.47      79.375552      79.375552      114.9577     
   1340000   1.0012033     -0.39947368     0.4805204      0.081046713    0.70488124     724288.47      79.375552      79.375552      114.9577     
   1350000   0.99992522    -0.40069007     0.47990698     0.079216904    0.50953001     724288.47      79.375552      79.375552      114.9577     
   1360000   1.0012631     -0.39872276     0.48054907     0.081826307    0.81170338     724288.47      79.375552      79.375552      114.9577     
   1370000   0.99968662    -0.39899759     0.47979246     0.080794873    0.55711523     724288.47      79.375552      79.375552      114.9577     
   1380000   0.99921933    -0.39683592     0.47956819     0.082732271    0.50472195     724288.47      79.375552      79.375552      114.9577     
   1390000   1.0005241     -0.39781014     0.48019438     0.08238424     0.8262331      724288.47      79.375552      79.375552      114.9577     
   1400000   1.0010477     -0.40029619     0.48044569     0.080149503    0.658434       724288.47      79.375552      79.375552      114.9577     
   1410000   0.99916585    -0.39992687     0.47954252     0.079615646    0.50460063     724288.47      79.375552      79.375552      114.9577     
   1420000   1.0016691     -0.39992914     0.48074396     0.08081482     0.82379436     724288.47      79.375552      79.375552      114.9577     
   1430000   0.99849501    -0.39879933     0.47922056     0.080421231    0.76186608     724288.47      79.375552      79.375552      114.9577     
   1440000   1.0010262     -0.39675204     0.48043539     0.083683351    0.80188309     724288.47      79.375552      79.375552      114.9577     
   1450000   1.0013919     -0.39609999     0.48061089     0.0845109      0.66346043     724288.47      79.375552      79.375552      114.9577     
   1460000   1.0003449     -0.39906794     0.48010839     0.081040449    0.57271544     724288.47      79.375552      79.375552      114.9577     
   1470000   1.0012157     -0.39969662     0.48052634     0.080829723    0.87992796     724288.47      79.375552      79.375552      114.9577     
   1480000   1.0013588     -0.3998233      0.480595       0.080771693    0.65810249     724288.47      79.375552      79.375552      114.9577     
   1490000   1.0005775     -0.39745463     0.48022005     0.082765416    0.66420241     724288.47      79.375552      79.375552      114.9577     
   1500000   1.0006167     -0.39940983     0.48023884     0.080829008    0.92593136     724288.47      79.375552      79.375552      114.9577     
   1510000   1.0009872     -0.39872263     0.48041666     0.081694034    0.68395221     724288.47      79.375552      79.375552      114.9577     
   1520000   1.0012084     -0.39830002     0.48052283     0.082222804    0.51204381     724288.47      79.375552      79.375552      114.9577     
   1530000   0.99999487    -0.40056627     0.4799404      0.079374136    0.63363034     724288.47      79.375552      79.375552      114.9577     
   1540000   1.0024215     -0.39984043     0.48110505     0.081264616    0.6517403      724288.47      79.375552      79.375552      114.9577     
   1550000   0.99898861    -0.40041355     0.47945746     0.079043911    0.77446475     724288.47      79.375552      79.375552      114.9577     
   1560000   0.99944204    -0.39830675     0.47967508     0.081368328    0.72018576     724288.47      79.375552      79.375552      114.9577     
   1570000   1.0011356     -0.39738921     0.48048788     0.083098668    0.80590291     724288.47      79.375552      79.375552      114.9577     
   1580000   0.99789206    -0.39898045     0.47893117     0.079950725    0.66374863     724288.47      79.375552      79.375552      114.9577     
   1590000   0.99821683    -0.39984415     0.47908705     0.079242892    0.73323973     724288.47      79.375552      79.375552      114.9577     
   1600000   0.99927426    -0.39875329     0.47959455     0.080841262    0.63705008     724288.47      79.375552      79.375552      114.9577     
   1610000   0.99961802    -0.39864861     0.47975954     0.081110925    0.50101374     724288.47      79.375552      79.375552      114.9577     
   1620000   0.9979203     -0.40043992     0.47894473     0.078504813    0.50449915     724288.47      79.375552      79.375552      114.9577     
   1630000   0.99929737    -0.39964908     0.47960564     0.079956563    0.49018973     724288.47      79.375552      79.375552      114.9577     
   1640000   0.99971155    -0.39809503     0.47980443     0.081709397    0.6782629      724288.47      79.375552      79.375552      114.9577     
   1650000   1.0001539     -0.39984448     0.48001672     0.080172241    0.72602302     724288.47      79.375552      79.375552      114.9577     
   1660000   1.0005745     -0.39888606     0.4802186      0.081332542    0.70867492     724288.47      79.375552      79.375552      114.9577     
   1670000   0.99845961    -0.40049107     0.47920357     0.078712496    0.59468167     724288.47      79.375552      79.375552      114.9577     
   1680000   1.0001808     -0.4001339      0.48002964     0.079895738    0.63611327     724288.47      79.375552      79.375552      114.9577     
   1690000   0.99962617    -0.39890541     0.47976345     0.080858043    0.63652745     724288.47      79.375552      79.375552      114.9577     
   1700000   0.99968593    -0.39954108     0.47979213     0.080251048    0.82231938     724288.47      79.375552      79.375552      114.9577     
   1710000   1.0004432     -0.39921631     0.48015558     0.080939265    0.61269988     724288.47      79.375552      79.375552      114.9577     
   1720000   1.0009538     -0.39948594     0.48040061     0.080914674    0.67243147     724288.47      79.375552      79.375552      114.9577     
   1730000   1.0016022     -0.40019187     0.48071182     0.080519958    0.4639822      724288.47      79.375552      79.375552      114.9577     
   1740000   1.0002362     -0.39792846     0.48005624     0.082127772    0.59826516     724288.47      79.375552      79.375552      114.9577     
   1750000   0.99886041    -0.39996432     0.47939593     0.079431606    0.4145309      724288.47      79.375552      79.375552      114.9577     
   1760000   1.0015269     -0.39861641     0.4806757      0.082059286    0.77515009     724288.47      79.375552      79.375552      114.9577     
   1770000   0.99975965    -0.39867062     0.47982751     0.081156888    0.83532234     724288.47      79.375552      79.375552      114.9577     
   1780000   1.0011504     -0.39886345     0.48049501     0.081631564    0.90459728     724288.47      79.375552      79.375552      114.9577     
   1790000   0.99956523    -0.39893489     0.4797342      0.080799311    0.75660778     724288.47      79.375552      79.375552      114.9577     
   1800000   1.0000097     -0.39832938     0.4799475      0.081618122    0.66175348     724288.47      79.375552      79.375552      114.9577     
   1810000   1.0012749     -0.39902378     0.48055473     0.081530952    0.65242587     724288.47      79.375552      79.375552      114.9577     
   1820000   0.99850098    -0.3990976      0.47922342     0.080125822    0.70145732     724288.47      79.375552      79.375552      114.9577     
   1830000   0.9984139     -0.39986635     0.47918163     0.079315273    0.64168513     724288.47      79.375552      79.375552      114.9577     
   1840000   1.0001457     -0.3998239      0.48001279     0.080188888    0.6751872      724288.47      79.375552      79.375552      114.9577     
   1850000   0.99964116    -0.39693652     0.47977064     0.082834126    0.65154941     724288.47      79.375552      79.375552      114.9577     
   1860000   1.0006653     -0.39890975     0.48026219     0.081352447    0.78381228     724288.47      79.375552      79.375552      114.9577     
   1870000   0.9983208     -0.39851967     0.47913695     0.080617282    0.59966652     724288.47      79.375552      79.375552      114.9577     
   1880000   1.0008223     -0.3975351      0.48033753     0.082802435    0.65589151     724288.47      79.375552      79.375552      114.9577     
   1890000   1.0021067     -0.3995797      0.48095398     0.081374282    0.60104807     724288.47      79.375552      79.375552      114.9577     
   1900000   1.0010137     -0.39680591     0.4804294      0.083623488    0.6287402      724288.47      79.375552      79.375552      114.9577     
   1910000   0.99902851    -0.39923781     0.47947661     0.080238799    0.66527738     724288.47      79.375552      79.375552      114.9577     
   1920000   1.0008255     -0.39768551     0.48033904     0.082653538    0.53517471     724288.47      79.375552      79.375552      114.9577     
   1930000   1.0008954     -0.39900359     0.4803726      0.081369012    0.67972509     724288.47      79.375552      79.375552      114.9577     
   1940000   0.99965119    -0.39857797     0.47977546     0.081197487    0.71053801     724288.47      79.375552      79.375552      114.9577     
   1950000   1.0001721     -0.39995799     0.48002545     0.080067455    0.66187528     724288.47      79.375552      79.375552      114.9577     
   1960000   0.99806638    -0.39965868     0.47901484     0.079356159    0.54166712     724288.47      79.375552      79.375552      114.9577     
   1970000   0.99859738    -0.39889909     0.47926969     0.080370596    0.63736933     724288.47      79.375552      79.375552      114.9577     
   1980000   1.0000434     -0.40008741     0.47996368     0.079876276    0.61499464     724288.47      79.375552      79.375552      114.9577     
   1990000   1.0032808     -0.39998497     0.48151748     0.08153251     0.77632901     724288.47      79.375552      79.375552      114.9577     
   2000000   1.0012008     -0.40043292     0.48051918     0.080086257    0.76106209     724288.47      79.375552      79.375552      114.9577     
   2006608   0.99912872    -0.39819222     0.4795247      0.081332483    0.6628321      724288.47      79.375552      79.375552      114.9577     
Loop time of 56306.2 on 480 procs for 2000000 steps with 1622490 atoms

Performance: 15344.667 tau/day, 35.520 timesteps/s, 57.631 Matom-step/s
99.2% CPU use with 480 MPI tasks x 1 OpenMP threads

MPI task timing breakdown:
Section |  min time  |  avg time  |  max time  |%varavg| %total
---------------------------------------------------------------
Pair    | 628.53     | 1202.6     | 1454       | 566.7 |  2.14
Bond    | 2.768      | 16.692     | 31.111     | 127.9 |  0.03
Neigh   | 41786      | 43668      | 45117      | 444.5 | 77.56
Comm    | 2481.9     | 6677.3     | 10381      |2633.6 | 11.86
Output  | 1.3323     | 2.3232     | 3.345      |  40.4 |  0.00
Modify  | 2542.9     | 4344.2     | 6865.1     |1873.6 |  7.72
Other   |            | 394.8      |            |       |  0.70

Nlocal:        3380.19 ave        8173 max        1326 min
Histogram: 192 24 24 0 96 78 26 34 3 3
Nghost:        19731.5 ave       43405 max        7429 min
Histogram: 192 0 48 0 0 155 5 56 16 8
Neighs:        47573.3 ave       58174 max       20847 min
Histogram: 2 10 21 19 55 52 51 43 35 192

Total # of neighbors = 22835173
Ave neighs/atom = 14.074153
Ave special neighs/atom = 0.18118324
Neighbor list builds = 642790
Dangerous builds = 32
========================================
Flow simulation complete
========================================
System init for write_data ...
Generated 0 of 15 mixed pair_coeff terms from geometric mixing rule
Last active /omp style is bond_style fene/omp
WARNING: More than one fix rigid (src/RIGID/fix_rigid.cpp:712)
WARNING: More than one fix rigid (src/RIGID/fix_rigid.cpp:712)
WARNING: More than one fix rigid (src/RIGID/fix_rigid.cpp:712)
WARNING: Not all mixed pair coeffs generated from mixing. Use write_data with 'pair ij' option to store all pair coeffs. (src/write_data.cpp:364)
Total wall time: 15:40:32
======================================
Running post-processing...
======================================
Generating convergence plot...
Plot saved to ./output_plots/convergence_plots/walled_slab_support_5beads_tall_3_1.5_1.4_20000000_1.0_1.4_2000000_convergence.png
Generating stress profiles...
Warning: Could not find data file (tried walled_slab_support_5beads_tall_3.data and walled_slab_support_5beads_tall_3_1.5_1.4_20000000_1.0_1.4_2000000.data), using default box dimensions
Stress profile saved to ./output_plots/walled_slab_support_5beads_tall_3_1.5_1.4_20000000_1.0_1.4_2000000_stress.png
No volume data found for walled_slab_support_5beads_tall_3_1.5_1.4_20000000_1.0_1.4_2000000, skipping volume fraction plots
Generating piston plots...
Read 40 position points, 40 velocity points
Piston plot saved to ./output_plots/walled_slab_support_5beads_tall_3_1.5_1.4_20000000_1.0_1.4_2000000_piston.png

=== Piston Summary ===
Initial position: 104.1355
Final position:   104.0644
Total displacement: -0.0711
Steady-state velocity: -1.40e-03 ± 2.93e-03
Generating computational efficiency plot...
Found data file: ./data_files/walled_slab_support_5beads_tall_3_1.5_1.4_20000000.data
Mobile atoms: 1482595
Tracking info written to /jet/home/dpollard/Documents/lammps_work/tracking.txt
Saved /jet/home/dpollard/Documents/lammps_work/time_vs_atoms.png
Saved /jet/home/dpollard/Documents/lammps_work/time_vs_timesteps.png
======================================
Done! Results are in: /jet/home/dpollard/Documents/lammps_runs/slab_with_flow_walled_slab_support_5beads_tall_3_1.5_1.4_20000000_1.0_1.4_20260127_025719
======================================
