======================================
Working directory: /jet/home/dpollard/Documents/lammps_runs/slab_with_flow_walled_slab_support_5beads_tall_3_1.5_1.4_20000000_1.5_1.4_20260121_020318
Trajectory directory (scratch): /ocean/projects/chm250028p/dpollard/lammps_trajectories/slab_with_flow_walled_slab_support_5beads_tall_3_1.5_1.4_20000000_1.5_1.4_20260121_020318
======================================
Running LAMMPS in slab_with_flow with:
  dataname=walled_slab_support_5beads_tall_3_1.5_1.4_20000000
  epsSS=1.5, epsSP=1.4
  nsteps=2000000, oldsteps=0, totsteps=2000000
SLURM tasks per node: 120
SLURM CPUs per task: 1
SLURM_GPUS_ON_NODE: 
GPUs allocated: 
Running CPU-only with 480 tasks
LAMMPS (22 Jul 2025)
  using 1 OpenMP thread(s) per MPI task
using multi-threaded neighbor list subroutines
Reading data file ...
  orthogonal box = (-4.8877761 -4.8877761 -7.0788481) to (74.487776 74.487776 107.87885)
  6 by 8 by 10 MPI processor grid
  reading atoms ...
  1622491 atoms
  scanning bonds ...
  3 = max bonds/atom
  orthogonal box = (-4.8877761 -4.8877761 -7.0788481) to (74.487776 74.487776 107.87885)
  6 by 8 by 10 MPI processor grid
  reading bonds ...
  146984 bonds
Finding 1-2 1-3 1-4 neighbors ...
  special bond factors lj:    0        0        0       
  special bond factors coul:  0        0        0       
     4 = max # of 1-2 neighbors
     4 = max # of 1-3 neighbors
     8 = max # of 1-4 neighbors
    12 = max # of special neighbors
  special bonds CPU = 0.152 seconds
  read_data CPU = 4.958 seconds
========================================
Flow simulation: walled_slab_support_5beads_tall_3_1.5_1.4_20000000
Interaction: epsSS=1.5, epsSP=1.4
Production steps: 2000000
Piston force per bead: -0.5
========================================
129793 atoms in group polymer
389338 atoms in group solvent
69948 atoms in group support
69948 atoms in group piston
963464 atoms in group walls
519131 atoms in group mobile
659027 atoms in group gel_system
Finding 1-2 1-3 1-4 neighbors ...
  special bond factors lj:    0        1        1       
  special bond factors coul:  0        1        1       
     4 = max # of 1-2 neighbors
    12 = max # of special neighbors
  special bonds CPU = 0.062 seconds
  1 rigid bodies with 69948 atoms
  1 rigid bodies with 69948 atoms
  1 rigid bodies with 963464 atoms
========================================
Phase 1: Soft push to resolve solvent-piston overlaps
========================================
Generated 0 of 15 mixed pair_coeff terms from geometric mixing rule
Hybrid pair style last /omp style soft
Last active /omp style is bond_style fene/omp
WARNING: More than one fix rigid (src/RIGID/fix_rigid.cpp:712)
WARNING: More than one fix rigid (src/RIGID/fix_rigid.cpp:712)
WARNING: More than one fix rigid (src/RIGID/fix_rigid.cpp:712)
Neighbor list info ...
  update: every = 1 steps, delay = 0 steps, check = yes
  max neighbors/atom: 2000, page size: 100000
  master list distance cutoff = 2.8
  ghost atom cutoff = 5
  binsize = 1.4, bins = 57 57 83
  2 neighbor lists, perpetual/occasional/extra = 2 0 0
  (1) pair lj/cut, perpetual
      attributes: half, newton on, omp, cut 2.8
      pair build: half/bin/newton/omp
      stencil: half/bin/3d
      bin: standard
  (2) pair soft, perpetual, skip from (1)
      attributes: half, newton on, omp
      pair build: skip/omp
      stencil: none
      bin: none
Setting up Verlet run ...
  Unit style    : lj
  Current step  : 0
  Time step     : 0.005
Per MPI rank memory allocation (min/avg/max) = 17.94 | 28.43 | 52.16 Mbytes
   Step          Temp          PotEng         KinEng         TotEng         Press          Volume           Lx             Ly             Lz      
         0   0             -0.43794805     0             -0.43794805     0.085610388    724288.47      79.375552      79.375552      114.9577     
      1000   1.1841937     -0.57352505     0.56834605    -0.0051790035   2.7535041      724288.47      79.375552      79.375552      114.9577     
Loop time of 43.2126 on 480 procs for 1000 steps with 1622491 atoms

Performance: 9997.087 tau/day, 23.141 timesteps/s, 37.547 Matom-step/s
99.2% CPU use with 480 MPI tasks x 1 OpenMP threads

MPI task timing breakdown:
Section |  min time  |  avg time  |  max time  |%varavg| %total
---------------------------------------------------------------
Pair    | 1.0515     | 1.4211     | 2.0932     |  13.0 |  3.29
Bond    | 0.0013758  | 0.01995    | 0.033872   |   5.8 |  0.05
Neigh   | 34.325     | 35.644     | 36.71      |  10.8 | 82.49
Comm    | 1.2818     | 3.6974     | 5.8636     |  59.8 |  8.56
Output  | 0.0044291  | 0.025619   | 0.04368    |   7.3 |  0.06
Modify  | 0.90038    | 2.0818     | 3.3296     |  40.7 |  4.82
Other   |            | 0.3224     |            |       |  0.75

Nlocal:        3380.19 ave        7972 max        1314 min
Histogram: 192 11 37 3 93 76 32 27 5 4
Nghost:          19747 ave       42577 max        7180 min
Histogram: 192 0 48 0 0 117 43 56 16 8
Neighs:        88180.3 ave      169213 max       38370 min
Histogram: 9 102 136 46 45 49 35 27 25 6

Total # of neighbors = 42326555
Ave neighs/atom = 26.08739
Ave special neighs/atom = 0.18118313
Neighbor list builds = 487
Dangerous builds = 0
Generated 0 of 15 mixed pair_coeff terms from geometric mixing rule
Hybrid pair style last /omp style soft
Last active /omp style is bond_style fene/omp
WARNING: More than one fix rigid (src/RIGID/fix_rigid.cpp:712)
WARNING: More than one fix rigid (src/RIGID/fix_rigid.cpp:712)
WARNING: More than one fix rigid (src/RIGID/fix_rigid.cpp:712)
Setting up cg style minimization ...
  Unit style    : lj
  Current step  : 1000
Per MPI rank memory allocation (min/avg/max) = 20.46 | 32.21 | 58.79 Mbytes
   Step          Temp          PotEng         KinEng         TotEng         Press          Volume           Lx             Ly             Lz      
      1000   1.1841937     -0.57352505     0.56834605    -0.0051790035   2.7535041      724288.47      79.375552      79.375552      114.9577     
      1368   1.1841937     -1.1500798      0.56834605    -0.58173376    -1.5344312      724288.47      79.375552      79.375552      114.9577     
Loop time of 7.83073 on 480 procs for 368 steps with 1622491 atoms

99.1% CPU use with 480 MPI tasks x 1 OpenMP threads

Minimization stats:
  Stopping criterion = energy tolerance
  Energy initial, next-to-last, final = 
    -0.573525050860601   -1.1499795105993  -1.15007980697577
  Force two-norm initial, final = 33198.917 729.06682
  Force max component initial, final = 1542.5909 359.28477
  Final line search alpha, max atom move = 0.00068777995 0.24710886
  Iterations, force evaluations = 368 373

MPI task timing breakdown:
Section |  min time  |  avg time  |  max time  |%varavg| %total
---------------------------------------------------------------
Pair    | 0.12881    | 0.43566    | 0.62595    |  16.7 |  5.56
Bond    | 0.00033491 | 0.0058509  | 0.01432    |   3.7 |  0.07
Neigh   | 5.3796     | 5.5955     | 5.7767     |   4.5 | 71.46
Comm    | 0.38021    | 1.0878     | 1.7788     |  34.6 | 13.89
Output  | 0          | 0          | 0          |   0.0 |  0.00
Modify  | 0.0043898  | 0.03316    | 0.10832    |  15.9 |  0.42
Other   |            | 0.6727     |            |       |  8.59

Nlocal:        3380.19 ave        7955 max        1381 min
Histogram: 192 24 24 9 87 78 31 27 5 3
Nghost:        19743.8 ave       42322 max        7405 min
Histogram: 192 0 48 0 0 112 48 56 16 8
Neighs:        68664.9 ave      169905 max       14407 min
Histogram: 23 49 75 226 50 24 5 6 6 16

Total # of neighbors = 32959159
Ave neighs/atom = 20.313924
Ave special neighs/atom = 0.18118313
Neighbor list builds = 81
Dangerous builds = 4
Soft push complete - overlaps resolved
========================================
Phase 2: Switching to full LJ interactions
========================================
Generated 0 of 15 mixed pair_coeff terms from geometric mixing rule
Last active /omp style is bond_style fene/omp
WARNING: More than one fix rigid (src/RIGID/fix_rigid.cpp:712)
WARNING: More than one fix rigid (src/RIGID/fix_rigid.cpp:712)
WARNING: More than one fix rigid (src/RIGID/fix_rigid.cpp:712)
Neighbor list info ...
  update: every = 1 steps, delay = 0 steps, check = yes
  max neighbors/atom: 2000, page size: 100000
  master list distance cutoff = 2.8
  ghost atom cutoff = 5
  binsize = 1.4, bins = 57 57 83
  1 neighbor lists, perpetual/occasional/extra = 1 0 0
  (1) pair lj/cut/omp, perpetual
      attributes: half, newton on, omp
      pair build: half/bin/newton/omp
      stencil: half/bin/3d
      bin: standard
Setting up cg style minimization ...
  Unit style    : lj
  Current step  : 1368
Per MPI rank memory allocation (min/avg/max) = 19.83 | 31.24 | 56.99 Mbytes
   Step          Temp          PotEng         KinEng         TotEng         Press          Volume           Lx             Ly             Lz      
      1368   1.1841937     -1.1521912      0.56834605    -0.5838452     -1.5326243      724288.47      79.375552      79.375552      114.9577     
      1369   1.1841937     -1.1522342      0.56834605    -0.58388818    -1.535449       724288.47      79.375552      79.375552      114.9577     
Loop time of 0.172085 on 480 procs for 1 steps with 1622491 atoms

99.3% CPU use with 480 MPI tasks x 1 OpenMP threads

Minimization stats:
  Stopping criterion = energy tolerance
  Energy initial, next-to-last, final = 
     -1.15219124372123  -1.15219124372123  -1.15223423088914
  Force two-norm initial, final = 1393.3655 515.24576
  Force max component initial, final = 359.28477 48.123393
  Final line search alpha, max atom move = 3.4791344e-05 0.0016742775
  Iterations, force evaluations = 1 5

MPI task timing breakdown:
Section |  min time  |  avg time  |  max time  |%varavg| %total
---------------------------------------------------------------
Pair    | 0.0011917  | 0.0059187  | 0.011967   |   3.1 |  3.44
Bond    | 4.978e-06  | 9.4275e-05 | 0.00032768 |   0.0 |  0.05
Neigh   | 0          | 0          | 0          |   0.0 |  0.00
Comm    | 0.0041133  | 0.013607   | 0.023367   |   4.2 |  7.91
Output  | 0          | 0          | 0          |   0.0 |  0.00
Modify  | 4.5756e-05 | 0.00028231 | 0.00085191 |   0.0 |  0.16
Other   |            | 0.1522     |            |       | 88.43

Nlocal:        3380.19 ave        7954 max        1385 min
Histogram: 192 24 24 9 87 78 31 27 5 3
Nghost:          19744 ave       42323 max        7407 min
Histogram: 192 0 48 0 0 112 48 56 16 8
Neighs:        45417.6 ave       71740 max        5713 min
Histogram: 22 27 40 66 43 52 14 8 100 108

Total # of neighbors = 21800434
Ave neighs/atom = 13.436397
Ave special neighs/atom = 0.18118313
Neighbor list builds = 0
Dangerous builds = 0
Generated 0 of 15 mixed pair_coeff terms from geometric mixing rule
Last active /omp style is bond_style fene/omp
WARNING: More than one fix rigid (src/RIGID/fix_rigid.cpp:712)
WARNING: More than one fix rigid (src/RIGID/fix_rigid.cpp:712)
WARNING: More than one fix rigid (src/RIGID/fix_rigid.cpp:712)
Setting up Verlet run ...
  Unit style    : lj
  Current step  : 1369
  Time step     : 0.005
Per MPI rank memory allocation (min/avg/max) = 18.7 | 29.08 | 52.5 Mbytes
   Step          Temp          PotEng         KinEng         TotEng         Press          Volume           Lx             Ly             Lz      
      1369   1.1841937     -1.1522342      0.56834605    -0.58388818    -1.0114518      724288.47      79.375552      79.375552      114.9577     
WARNING: Lost atoms: original 1622491 current 1622482
For more information see https://docs.lammps.org/err0008 (src/thermo.cpp:532)
      6369   5.2377896e-05 -1.3684897      2.513857e-05  -1.3684646     -1.5802916      724288.47      79.375552      79.375552      114.9577     
Loop time of 79.1803 on 480 procs for 5000 steps with 1622482 atoms

Performance: 27279.518 tau/day, 63.147 timesteps/s, 102.455 Matom-step/s
99.2% CPU use with 480 MPI tasks x 1 OpenMP threads

MPI task timing breakdown:
Section |  min time  |  avg time  |  max time  |%varavg| %total
---------------------------------------------------------------
Pair    | 0.37504    | 2.8243     | 4.0198     |  50.2 |  3.57
Bond    | 0.0034195  | 0.028464   | 0.056991   |   6.8 |  0.04
Neigh   | 44.886     | 46.898     | 48.515     |  14.4 | 59.23
Comm    | 4.9717     | 13.931     | 21.878     | 122.3 | 17.59
Output  | 0.021355   | 0.14453    | 0.28219    |  20.2 |  0.18
Modify  | 9.4036     | 14.308     | 20.459     |  82.4 | 18.07
Other   |            | 1.045      |            |       |  1.32

Nlocal:        3380.17 ave        7891 max        1403 min
Histogram: 192 24 24 0 96 73 31 28 9 3
Nghost:          19730 ave       42153 max        7614 min
Histogram: 192 0 48 0 0 96 64 56 16 8
Neighs:          46676 ave       65010 max        3655 min
Histogram: 6 13 14 21 49 71 47 43 38 178

Total # of neighbors = 22404499
Ave neighs/atom = 13.808781
Ave special neighs/atom = 0.18118414
Neighbor list builds = 716
Dangerous builds = 145
========================================
Phase 3: Production flow with piston forcing
========================================
  1 rigid bodies with 69948 atoms
Generated 0 of 15 mixed pair_coeff terms from geometric mixing rule
Last active /omp style is bond_style fene/omp
WARNING: More than one fix rigid (src/RIGID/fix_rigid.cpp:712)
WARNING: More than one fix rigid (src/RIGID/fix_rigid.cpp:712)
WARNING: More than one fix rigid (src/RIGID/fix_rigid.cpp:712)
Setting up Verlet run ...
  Unit style    : lj
  Current step  : 6369
  Time step     : 0.005
Per MPI rank memory allocation (min/avg/max) = 17.32 | 27.47 | 50.36 Mbytes
   Step          Temp          PotEng         KinEng         TotEng         Press          Volume           Lx             Ly             Lz      
      6369   5.2378804e-05 -1.3684897      2.513857e-05  -1.3684646     -1.5257875      724288.47      79.375552      79.375552      114.9577     
Loop time of 1.1196e-05 on 480 procs for 0 steps with 1622482 atoms

114.0% CPU use with 480 MPI tasks x 1 OpenMP threads

MPI task timing breakdown:
Section |  min time  |  avg time  |  max time  |%varavg| %total
---------------------------------------------------------------
Pair    | 0          | 0          | 0          |   0.0 |  0.00
Bond    | 0          | 0          | 0          |   0.0 |  0.00
Neigh   | 0          | 0          | 0          |   0.0 |  0.00
Comm    | 0          | 0          | 0          |   0.0 |  0.00
Output  | 0          | 0          | 0          |   0.0 |  0.00
Modify  | 0          | 0          | 0          |   0.0 |  0.00
Other   |            | 1.12e-05   |            |       |100.00

Nlocal:        3380.17 ave        7890 max        1404 min
Histogram: 192 24 24 0 96 73 31 28 9 3
Nghost:          19730 ave       42152 max        7615 min
Histogram: 192 0 48 0 0 96 64 56 16 8
Neighs:        46679.3 ave       65026 max        3653 min
Histogram: 6 13 14 21 49 71 47 43 38 178

Total # of neighbors = 22406061
Ave neighs/atom = 13.809744
Ave special neighs/atom = 0.18118414
Neighbor list builds = 0
Dangerous builds = 0
Rg_xx = 384.744539955451
Rg_yy = 380.51472943702
Rg_zz = 677.625819372299
hw_x = 31.7761478259887
hw_y = 31.6009945402754
hw_z = 42.1706201087993
Generated 0 of 15 mixed pair_coeff terms from geometric mixing rule
Last active /omp style is bond_style fene/omp
WARNING: More than one fix rigid (src/RIGID/fix_rigid.cpp:712)
WARNING: More than one fix rigid (src/RIGID/fix_rigid.cpp:712)
WARNING: More than one fix rigid (src/RIGID/fix_rigid.cpp:712)
Setting up Verlet run ...
  Unit style    : lj
  Current step  : 6369
  Time step     : 0.005
Per MPI rank memory allocation (min/avg/max) = 20.33 | 33.23 | 62.37 Mbytes
   Step          Temp          PotEng         KinEng         TotEng         Press          Volume           Lx             Ly             Lz      
      6369   5.2378804e-05 -1.3684897      2.513857e-05  -1.3684646     -1.5257875      724288.47      79.375552      79.375552      114.9577     
     10000   0.90156199    -1.4047393      0.43269371    -0.97204558     1.3663479      724288.47      79.375552      79.375552      114.9577     
     20000   1.0114353     -1.2204387      0.48542607    -0.73501265     1.5151477      724288.47      79.375552      79.375552      114.9577     
     30000   1.0021814     -1.2635611      0.48098477    -0.7825763      1.5849648      724288.47      79.375552      79.375552      114.9577     
     40000   1.000805      -1.2786073      0.4803242     -0.79828307     1.405003       724288.47      79.375552      79.375552      114.9577     
     50000   1.0005476     -1.2851053      0.48020064    -0.80490462     1.2643382      724288.47      79.375552      79.375552      114.9577     
     60000   0.99751482    -1.2920044      0.4787451     -0.81325934     1.5140893      724288.47      79.375552      79.375552      114.9577     
     70000   0.99857972    -1.2982518      0.47925619    -0.81899557     1.4479335      724288.47      79.375552      79.375552      114.9577     
     80000   1.0001156     -1.3012613      0.47999333    -0.82126794     1.3991444      724288.47      79.375552      79.375552      114.9577     
     90000   0.99994198    -1.3068476      0.47990999    -0.82693757     1.5779075      724288.47      79.375552      79.375552      114.9577     
    100000   0.99942281    -1.3106559      0.47966082    -0.83099504     1.5406722      724288.47      79.375552      79.375552      114.9577     
    110000   1.000887      -1.3155031      0.48036354    -0.83513953     1.3390953      724288.47      79.375552      79.375552      114.9577     
    120000   0.99970874    -1.3172875      0.47979805    -0.83748948     1.6255813      724288.47      79.375552      79.375552      114.9577     
    130000   1.0013863     -1.3218938      0.48060317    -0.84129067     1.3046047      724288.47      79.375552      79.375552      114.9577     
    140000   1.0001262     -1.325414       0.47999841    -0.84541558     1.4733413      724288.47      79.375552      79.375552      114.9577     
    150000   1.0006058     -1.3274636      0.48022858    -0.84723507     1.4423748      724288.47      79.375552      79.375552      114.9577     
    160000   0.99747728    -1.3303269      0.47872709    -0.8515998      1.4163735      724288.47      79.375552      79.375552      114.9577     
    170000   1.0021885     -1.3329133      0.48098819    -0.85192513     1.3891377      724288.47      79.375552      79.375552      114.9577     
    180000   0.99932464    -1.3353005      0.47961371    -0.85568684     1.3953395      724288.47      79.375552      79.375552      114.9577     
    190000   0.99877729    -1.3377028      0.47935101    -0.85835178     1.3222263      724288.47      79.375552      79.375552      114.9577     
    200000   1.0003264     -1.3398199      0.4800945     -0.8597254      1.1928082      724288.47      79.375552      79.375552      114.9577     
    210000   0.99807675    -1.3413779      0.47901479    -0.86236312     1.2714123      724288.47      79.375552      79.375552      114.9577     
    220000   1.000242      -1.341321       0.48005398    -0.86126707     1.5201421      724288.47      79.375552      79.375552      114.9577     
    230000   0.99935118    -1.3419933      0.47962645    -0.86236685     1.2629943      724288.47      79.375552      79.375552      114.9577     
    240000   0.99977999    -1.3452965      0.47983224    -0.86546424     1.5285959      724288.47      79.375552      79.375552      114.9577     
    250000   0.99914162    -1.3467472      0.47952587    -0.86722129     1.4697964      724288.47      79.375552      79.375552      114.9577     
    260000   1.0013809     -1.3464621      0.48060057    -0.86586155     1.6102232      724288.47      79.375552      79.375552      114.9577     
    270000   0.99939081    -1.3471637      0.47964546    -0.86751819     1.4309231      724288.47      79.375552      79.375552      114.9577     
    280000   0.99956128    -1.3494706      0.47972728    -0.86974333     1.3140583      724288.47      79.375552      79.375552      114.9577     
    290000   1.0013343     -1.3516725      0.48057819    -0.87109427     1.3904616      724288.47      79.375552      79.375552      114.9577     
    300000   0.99885763    -1.3509978      0.47938957    -0.87160826     1.5083873      724288.47      79.375552      79.375552      114.9577     
    310000   1.0012874     -1.3513475      0.48055568    -0.87079186     1.3034683      724288.47      79.375552      79.375552      114.9577     
    320000   1.0006983     -1.3525528      0.48027298    -0.87227978     1.2345345      724288.47      79.375552      79.375552      114.9577     
    330000   0.9989277     -1.3519884      0.4794232     -0.87256524     1.3944713      724288.47      79.375552      79.375552      114.9577     
    340000   0.99822136    -1.3542279      0.4790842     -0.87514367     1.5117803      724288.47      79.375552      79.375552      114.9577     
    350000   1.0000961     -1.3531319      0.47998395    -0.87314799     1.3558179      724288.47      79.375552      79.375552      114.9577     
    360000   1.0000879     -1.3542381      0.47998002    -0.87425805     1.6525568      724288.47      79.375552      79.375552      114.9577     
    370000   0.99893604    -1.3533552      0.4794272     -0.87392801     1.3903744      724288.47      79.375552      79.375552      114.9577     
    380000   1.0004153     -1.3556476      0.48013716    -0.87551041     1.3610088      724288.47      79.375552      79.375552      114.9577     
    390000   0.99907927    -1.3553905      0.47949594    -0.8758946      1.4758888      724288.47      79.375552      79.375552      114.9577     
    400000   0.99919632    -1.35413        0.47955212    -0.87457785     1.5089613      724288.47      79.375552      79.375552      114.9577     
    410000   1.0005316     -1.355838       0.48019297    -0.87564506     1.2786158      724288.47      79.375552      79.375552      114.9577     
    420000   1.0007699     -1.3553872      0.48030734    -0.87507983     1.4588903      724288.47      79.375552      79.375552      114.9577     
    430000   0.99961814    -1.3561843      0.47975457    -0.87642974     1.2615617      724288.47      79.375552      79.375552      114.9577     
    440000   1.0012713     -1.3542494      0.48054798    -0.87370138     1.3284174      724288.47      79.375552      79.375552      114.9577     
    450000   0.9985926     -1.3546916      0.47926237    -0.87542918     1.5679371      724288.47      79.375552      79.375552      114.9577     
    460000   1.0011916     -1.3566951      0.48050975    -0.87618533     1.1905303      724288.47      79.375552      79.375552      114.9577     
    470000   1.0004518     -1.3573274      0.48015468    -0.87717272     1.3313066      724288.47      79.375552      79.375552      114.9577     
    480000   1.0025801     -1.3549868      0.48117613    -0.87381067     1.3856421      724288.47      79.375552      79.375552      114.9577     
    490000   0.99962354    -1.3551815      0.47975716    -0.87542438     1.461883       724288.47      79.375552      79.375552      114.9577     
    500000   0.99870273    -1.356565       0.47931522    -0.87724977     1.2927595      724288.47      79.375552      79.375552      114.9577     
    510000   1.0012324     -1.3548332      0.48052931    -0.87430385     1.3967531      724288.47      79.375552      79.375552      114.9577     
    520000   1.0012718     -1.3554639      0.48054821    -0.87491571     1.2729103      724288.47      79.375552      79.375552      114.9577     
    530000   0.99966254    -1.35486        0.47977588    -0.87508413     1.4004412      724288.47      79.375552      79.375552      114.9577     
    540000   0.99995588    -1.3549315      0.47991666    -0.87501482     1.4407488      724288.47      79.375552      79.375552      114.9577     
    550000   1.0004512     -1.3566083      0.48015438    -0.8764539      1.2129925      724288.47      79.375552      79.375552      114.9577     
    560000   1.0006908     -1.354923       0.48026937    -0.87465363     1.2937836      724288.47      79.375552      79.375552      114.9577     
    570000   0.99945641    -1.3574496      0.47967695    -0.87777266     1.3289398      724288.47      79.375552      79.375552      114.9577     
    580000   0.99985132    -1.3557654      0.47986648    -0.87589893     1.2548839      724288.47      79.375552      79.375552      114.9577     
    590000   1.0014862     -1.3557044      0.4806511     -0.87505332     1.2885277      724288.47      79.375552      79.375552      114.9577     
    600000   0.99838049    -1.3577276      0.47916057    -0.87856706     1.1927031      724288.47      79.375552      79.375552      114.9577     
    610000   0.998765      -1.3550732      0.47934511    -0.87572813     1.2559236      724288.47      79.375552      79.375552      114.9577     
    620000   1.0001741     -1.3565395      0.4800214     -0.87651809     1.4332034      724288.47      79.375552      79.375552      114.9577     
    630000   0.99934776    -1.3564327      0.4796248     -0.87680789     1.4059801      724288.47      79.375552      79.375552      114.9577     
    640000   1.0013779     -1.3555837      0.48059915    -0.87498451     1.3820282      724288.47      79.375552      79.375552      114.9577     
    650000   0.99925983    -1.3565323      0.4795826     -0.87694974     1.612808       724288.47      79.375552      79.375552      114.9577     
    660000   0.99974397    -1.355666       0.47981496    -0.87585102     1.4374969      724288.47      79.375552      79.375552      114.9577     
    670000   1.000561      -1.3556773      0.48020706    -0.87547029     1.4193979      724288.47      79.375552      79.375552      114.9577     
    680000   0.99974055    -1.3559757      0.47981332    -0.87616238     1.3691624      724288.47      79.375552      79.375552      114.9577     
    690000   0.9999552     -1.3565626      0.47991633    -0.87664626     1.4535083      724288.47      79.375552      79.375552      114.9577     
    700000   1.0017384     -1.3567316      0.48077217    -0.87595941     1.2516676      724288.47      79.375552      79.375552      114.9577     
    710000   1.0010742     -1.3571087      0.4804534     -0.87665527     1.1034148      724288.47      79.375552      79.375552      114.9577     
    720000   0.99919917    -1.3577014      0.47955349    -0.87814793     1.2921055      724288.47      79.375552      79.375552      114.9577     
    730000   0.99960882    -1.3561136      0.47975009    -0.87636347     1.2955634      724288.47      79.375552      79.375552      114.9577     
    740000   1.0004027     -1.3573974      0.48013111    -0.8772663      1.5083379      724288.47      79.375552      79.375552      114.9577     
    750000   1.0000412     -1.3574254      0.47995763    -0.87746779     1.1054101      724288.47      79.375552      79.375552      114.9577     
    760000   1.0010546     -1.3546957      0.480444      -0.87425174     1.6144676      724288.47      79.375552      79.375552      114.9577     
    770000   0.99793766    -1.3576176      0.47894804    -0.87866951     1.5105789      724288.47      79.375552      79.375552      114.9577     
    780000   1.0007438     -1.3585381      0.48029479    -0.87824328     1.4038825      724288.47      79.375552      79.375552      114.9577     
    790000   0.99899061    -1.3571829      0.47945339    -0.8777295      1.2748834      724288.47      79.375552      79.375552      114.9577     
    800000   0.99941297    -1.3576098      0.4796561     -0.87795367     1.1994147      724288.47      79.375552      79.375552      114.9577     
    810000   0.99959607    -1.3580595      0.47974397    -0.87831555     1.2816802      724288.47      79.375552      79.375552      114.9577     
    820000   0.99882253    -1.3571007      0.47937272    -0.87772794     1.4586025      724288.47      79.375552      79.375552      114.9577     
    830000   0.99988786    -1.3570203      0.47988402    -0.87713625     1.1490214      724288.47      79.375552      79.375552      114.9577     
    840000   0.99960232    -1.3562551      0.47974697    -0.87650809     1.4622077      724288.47      79.375552      79.375552      114.9577     
    850000   0.99946586    -1.356794       0.47968148    -0.87711248     1.1907341      724288.47      79.375552      79.375552      114.9577     
    860000   1.00024       -1.3544815      0.48005302    -0.87442851     1.3039327      724288.47      79.375552      79.375552      114.9577     
    870000   1.0001121     -1.3563732      0.47999166    -0.87638158     1.3534602      724288.47      79.375552      79.375552      114.9577     
    880000   0.99959528    -1.3581859      0.4797436     -0.87844234     1.2128036      724288.47      79.375552      79.375552      114.9577     
    890000   0.99861894    -1.3572941      0.47927501    -0.87801907     1.1733047      724288.47      79.375552      79.375552      114.9577     
    900000   1.0005945     -1.3560977      0.48022314    -0.87587455     1.3282704      724288.47      79.375552      79.375552      114.9577     
    910000   1.0001765     -1.3554776      0.48002254    -0.87545503     1.4879199      724288.47      79.375552      79.375552      114.9577     
    920000   1.0018184     -1.3575306      0.48081058    -0.87672002     1.2579496      724288.47      79.375552      79.375552      114.9577     
    930000   0.99977513    -1.3562489      0.47982991    -0.876419       1.4329525      724288.47      79.375552      79.375552      114.9577     
    940000   0.99890576    -1.358168       0.47941267    -0.87875533     1.2043555      724288.47      79.375552      79.375552      114.9577     
    950000   1.0001997     -1.3564047      0.48003368    -0.87637098     1.2680956      724288.47      79.375552      79.375552      114.9577     
    960000   0.99933316    -1.356725       0.47961779    -0.87710719     1.2311048      724288.47      79.375552      79.375552      114.9577     
    970000   1.0007336     -1.3586699      0.48028991    -0.87837996     1.2855943      724288.47      79.375552      79.375552      114.9577     
    980000   1.0007177     -1.3577108      0.4802823     -0.8774285      1.3709121      724288.47      79.375552      79.375552      114.9577     
    990000   0.99834177    -1.3574221      0.47914199    -0.87828012     1.3933595      724288.47      79.375552      79.375552      114.9577     
   1000000   1.0012143     -1.3566832      0.48052061    -0.87616255     1.2146476      724288.47      79.375552      79.375552      114.9577     
   1010000   0.99965287    -1.3576547      0.47977124    -0.87788342     1.452693       724288.47      79.375552      79.375552      114.9577     
   1020000   1.0001084     -1.3570003      0.47998984    -0.87701047     1.3593601      724288.47      79.375552      79.375552      114.9577     
   1030000   1.0014266     -1.3575654      0.48062253    -0.87694288     1.1225597      724288.47      79.375552      79.375552      114.9577     
   1040000   1.0007935     -1.3548546      0.48031866    -0.87453593     1.4002147      724288.47      79.375552      79.375552      114.9577     
   1050000   1.0015043     -1.3559932      0.4806598     -0.87533337     1.320194       724288.47      79.375552      79.375552      114.9577     
   1060000   1.0014893     -1.3563838      0.48065263    -0.87573122     1.422921       724288.47      79.375552      79.375552      114.9577     
   1070000   0.99933578    -1.3555846      0.47961905    -0.87596552     1.4280036      724288.47      79.375552      79.375552      114.9577     
   1080000   0.99985199    -1.3570055      0.4798668     -0.8771387      1.5703829      724288.47      79.375552      79.375552      114.9577     
   1090000   1.0010641     -1.3567852      0.48044855    -0.87633668     1.4409245      724288.47      79.375552      79.375552      114.9577     
   1100000   0.9978635     -1.3566995      0.47891245    -0.87778709     1.338964       724288.47      79.375552      79.375552      114.9577     
   1110000   1.0010324     -1.357668       0.48043333    -0.87723469     1.3689983      724288.47      79.375552      79.375552      114.9577     
   1120000   1.0002614     -1.357626       0.48006331    -0.87756267     1.403999       724288.47      79.375552      79.375552      114.9577     
   1130000   1.0006296     -1.3563167      0.48024002    -0.87607668     1.3641526      724288.47      79.375552      79.375552      114.9577     
   1140000   1.0000973     -1.3570277      0.47998452    -0.87704317     1.3111164      724288.47      79.375552      79.375552      114.9577     
   1150000   1.0004911     -1.3569591      0.48017353    -0.87678559     1.3227114      724288.47      79.375552      79.375552      114.9577     
   1160000   1.0005674     -1.3574617      0.48021017    -0.87725151     1.2775262      724288.47      79.375552      79.375552      114.9577     
   1170000   0.99924613    -1.3578702      0.47957602    -0.87829415     1.3013743      724288.47      79.375552      79.375552      114.9577     
   1180000   0.99941125    -1.3565725      0.47965527    -0.87691726     1.3719876      724288.47      79.375552      79.375552      114.9577     
   1190000   1.0009781     -1.3566179      0.48040728    -0.87621063     1.2775123      724288.47      79.375552      79.375552      114.9577     
   1200000   1.0003394     -1.3550268      0.48010072    -0.87492611     1.3963831      724288.47      79.375552      79.375552      114.9577     
   1210000   0.99947179    -1.3564349      0.47968433    -0.87675056     1.328277       724288.47      79.375552      79.375552      114.9577     
   1220000   1.0008895     -1.3589622      0.48036472    -0.87859749     1.057852       724288.47      79.375552      79.375552      114.9577     
   1230000   1.000268      -1.3542155      0.48006647    -0.87414899     1.3574467      724288.47      79.375552      79.375552      114.9577     
   1240000   0.99914629    -1.3564675      0.47952811    -0.87693937     1.2838323      724288.47      79.375552      79.375552      114.9577     
   1250000   0.99926696    -1.3571694      0.47958602    -0.87758335     1.1170072      724288.47      79.375552      79.375552      114.9577     
   1260000   1.000871      -1.3554639      0.48035584    -0.8751081      1.4768274      724288.47      79.375552      79.375552      114.9577     
   1270000   0.9990895     -1.3573184      0.47950085    -0.87781755     1.0823487      724288.47      79.375552      79.375552      114.9577     
   1280000   0.99927276    -1.357327       0.47958881    -0.87773815     1.256772       724288.47      79.375552      79.375552      114.9577     
   1290000   0.99873836    -1.3569216      0.47933233    -0.87758923     1.387014       724288.47      79.375552      79.375552      114.9577     
   1300000   0.99873305    -1.3575479      0.47932978    -0.87821812     1.2735188      724288.47      79.375552      79.375552      114.9577     
   1310000   0.99801095    -1.3564571      0.47898321    -0.87747392     1.3272833      724288.47      79.375552      79.375552      114.9577     
   1320000   1.0007483     -1.3584047      0.48029698    -0.87810772     1.329423       724288.47      79.375552      79.375552      114.9577     
   1330000   1.0002167     -1.3567171      0.48004184    -0.8766753      1.1730245      724288.47      79.375552      79.375552      114.9577     
   1340000   0.99836216    -1.3556633      0.47915178    -0.8765115      1.5080295      724288.47      79.375552      79.375552      114.9577     
   1350000   0.99917897    -1.3580078      0.47954379    -0.87846406     1.1055451      724288.47      79.375552      79.375552      114.9577     
   1360000   0.99934637    -1.3567195      0.47962414    -0.87709533     1.3107148      724288.47      79.375552      79.375552      114.9577     
   1370000   0.99891919    -1.357793       0.47941911    -0.87837384     1.2710044      724288.47      79.375552      79.375552      114.9577     
   1380000   0.99657847    -1.3564256      0.47829572    -0.87812989     1.4176687      724288.47      79.375552      79.375552      114.9577     
   1390000   0.99998562    -1.3558328      0.47993093    -0.87590184     1.2741955      724288.47      79.375552      79.375552      114.9577     
   1400000   0.9995146     -1.3549044      0.47970488    -0.8751995      1.2979202      724288.47      79.375552      79.375552      114.9577     
   1410000   1.0022861     -1.3554337      0.48103504    -0.87439869     1.3417644      724288.47      79.375552      79.375552      114.9577     
   1420000   0.99945247    -1.3551084      0.47967505    -0.87543332     1.2241816      724288.47      79.375552      79.375552      114.9577     
   1430000   1.0013302     -1.3562838      0.48057625    -0.87570758     1.2644458      724288.47      79.375552      79.375552      114.9577     
   1440000   0.99964141    -1.3546386      0.47976573    -0.87487288     1.3518857      724288.47      79.375552      79.375552      114.9577     
   1450000   1.0001775     -1.3570024      0.48002303    -0.87697938     1.1639321      724288.47      79.375552      79.375552      114.9577     
   1460000   1.0018672     -1.3556113      0.48083395    -0.87477739     1.1540386      724288.47      79.375552      79.375552      114.9577     
   1470000   1.0012851     -1.3565077      0.4805546     -0.87595307     1.4469973      724288.47      79.375552      79.375552      114.9577     
   1480000   1.0017732     -1.3550841      0.48078884    -0.87429521     1.337852       724288.47      79.375552      79.375552      114.9577     
   1490000   0.99950029    -1.3568027      0.47969801    -0.87710474     1.402281       724288.47      79.375552      79.375552      114.9577     
   1500000   1.0001383     -1.3551696      0.4800042     -0.87516545     1.1607802      724288.47      79.375552      79.375552      114.9577     
   1510000   0.99950647    -1.3544515      0.47970097    -0.8747505      1.2461356      724288.47      79.375552      79.375552      114.9577     
   1520000   1.0025187     -1.3563109      0.48114666    -0.87516428     1.1775821      724288.47      79.375552      79.375552      114.9577     
   1530000   1.0005361     -1.3562445      0.48019514    -0.87604935     1.2876102      724288.47      79.375552      79.375552      114.9577     
   1540000   1.0015004     -1.3553674      0.48065793    -0.87470951     1.216278       724288.47      79.375552      79.375552      114.9577     
   1550000   0.99841993    -1.3553858      0.4791795     -0.87620629     1.5591099      724288.47      79.375552      79.375552      114.9577     
   1560000   1.0003238     -1.3570765      0.48009324    -0.87698323     1.3990396      724288.47      79.375552      79.375552      114.9577     
   1570000   1.0001249     -1.355349       0.47999777    -0.87535127     1.434639       724288.47      79.375552      79.375552      114.9577     
   1580000   1.0003094     -1.3555724      0.48008635    -0.875486       1.4008575      724288.47      79.375552      79.375552      114.9577     
   1590000   0.99825821    -1.3545382      0.47910188    -0.87543632     1.3925925      724288.47      79.375552      79.375552      114.9577     
   1600000   0.99940917    -1.3552074      0.47965427    -0.87555308     1.4359933      724288.47      79.375552      79.375552      114.9577     
   1610000   0.99945269    -1.3557792      0.47967516    -0.87610408     1.265003       724288.47      79.375552      79.375552      114.9577     
   1620000   1.0025453     -1.3562686      0.48115941    -0.87510924     1.2085438      724288.47      79.375552      79.375552      114.9577     
   1630000   1.0009155     -1.3538264      0.4803772     -0.8734492      1.3238654      724288.47      79.375552      79.375552      114.9577     
   1640000   0.99880728    -1.3530787      0.47936541    -0.8737133      1.6083888      724288.47      79.375552      79.375552      114.9577     
   1650000   0.99984473    -1.3560141      0.47986332    -0.87615076     1.4154287      724288.47      79.375552      79.375552      114.9577     
   1660000   1.0004088     -1.3544362      0.48013402    -0.87430215     1.3545035      724288.47      79.375552      79.375552      114.9577     
   1670000   0.99997161    -1.3552466      0.47992421    -0.87532244     1.2806904      724288.47      79.375552      79.375552      114.9577     
   1680000   1.0015488     -1.3557582      0.48068118    -0.87507705     1.5537572      724288.47      79.375552      79.375552      114.9577     
   1690000   1.0011745     -1.3547122      0.48050155    -0.87421068     1.3108713      724288.47      79.375552      79.375552      114.9577     
   1700000   0.99929111    -1.3555045      0.47959761    -0.8759069      1.309866       724288.47      79.375552      79.375552      114.9577     
   1710000   1.0001602     -1.354991       0.48001472    -0.87497629     1.2860762      724288.47      79.375552      79.375552      114.9577     
   1720000   1.0014645     -1.3561508      0.4806407     -0.87551015     1.285065       724288.47      79.375552      79.375552      114.9577     
   1730000   0.99971625    -1.355222       0.47980165    -0.87542038     1.2340847      724288.47      79.375552      79.375552      114.9577     
   1740000   0.99948411    -1.3551134      0.47969024    -0.8754232      1.3877222      724288.47      79.375552      79.375552      114.9577     
   1750000   0.99935234    -1.3543705      0.479627      -0.87474348     1.1979135      724288.47      79.375552      79.375552      114.9577     
   1760000   1.0027195     -1.3533294      0.48124305    -0.87208636     1.5384524      724288.47      79.375552      79.375552      114.9577     
   1770000   0.99971023    -1.3549317      0.47979876    -0.87513298     1.4876581      724288.47      79.375552      79.375552      114.9577     
   1780000   1.0003324     -1.3537368      0.48009736    -0.87363941     1.4554534      724288.47      79.375552      79.375552      114.9577     
   1790000   1.001235      -1.356467       0.48053057    -0.87593647     1.1787371      724288.47      79.375552      79.375552      114.9577     
   1800000   1.0018199     -1.3561498      0.48081126    -0.87533853     1.1050505      724288.47      79.375552      79.375552      114.9577     
   1810000   1.0007358     -1.3534938      0.48029097    -0.8732028      1.536351       724288.47      79.375552      79.375552      114.9577     
   1820000   1.0007903     -1.3539501      0.48031713    -0.87363294     1.3549958      724288.47      79.375552      79.375552      114.9577     
   1830000   0.99993928    -1.3544858      0.47990869    -0.87457713     1.4043168      724288.47      79.375552      79.375552      114.9577     
   1840000   1.0011474     -1.3549572      0.48048852    -0.87446867     1.1840897      724288.47      79.375552      79.375552      114.9577     
   1850000   0.99896766    -1.3533303      0.47944238    -0.87388791     1.3077717      724288.47      79.375552      79.375552      114.9577     
   1860000   1.0004162     -1.3545976      0.48013756    -0.87446008     1.403074       724288.47      79.375552      79.375552      114.9577     
   1870000   0.99820149    -1.3547184      0.47907466    -0.87564372     1.3753631      724288.47      79.375552      79.375552      114.9577     
   1880000   1.000627      -1.3545282      0.48023877    -0.87428939     1.4683853      724288.47      79.375552      79.375552      114.9577     
   1890000   0.99921188    -1.3557873      0.47955959    -0.87622767     1.2370644      724288.47      79.375552      79.375552      114.9577     
   1900000   0.99885374    -1.3545437      0.4793877     -0.87515598     1.2916046      724288.47      79.375552      79.375552      114.9577     
   1910000   1.0008718     -1.3538176      0.48035626    -0.87346131     1.3226985      724288.47      79.375552      79.375552      114.9577     
   1920000   0.99966842    -1.354552       0.4797787     -0.87477325     1.1299185      724288.47      79.375552      79.375552      114.9577     
   1930000   1.0013661     -1.354612       0.48059349    -0.87401849     1.4348974      724288.47      79.375552      79.375552      114.9577     
   1940000   1.0022489     -1.3533005      0.48101717    -0.87228331     1.3217773      724288.47      79.375552      79.375552      114.9577     
   1950000   1.0000899     -1.3536         0.479981      -0.87361904     1.3297212      724288.47      79.375552      79.375552      114.9577     
   1960000   1.0011436     -1.3531154      0.48048668    -0.87262875     1.4196349      724288.47      79.375552      79.375552      114.9577     
   1970000   1.0004742     -1.3572226      0.4801654     -0.8770572      1.0514063      724288.47      79.375552      79.375552      114.9577     
   1980000   0.9986617     -1.3546269      0.47929553    -0.87533141     1.2238959      724288.47      79.375552      79.375552      114.9577     
   1990000   1.0001205     -1.3544782      0.47999566    -0.87448255     1.5985298      724288.47      79.375552      79.375552      114.9577     
   2000000   1.0000984     -1.3540213      0.47998505    -0.87403621     1.4807889      724288.47      79.375552      79.375552      114.9577     
   2006369   1.000646      -1.3557671      0.4802479     -0.87551919     1.3413733      724288.47      79.375552      79.375552      114.9577     
Loop time of 34526.8 on 480 procs for 2000000 steps with 1622482 atoms

Performance: 25024.070 tau/day, 57.926 timesteps/s, 93.984 Matom-step/s
99.1% CPU use with 480 MPI tasks x 1 OpenMP threads

MPI task timing breakdown:
Section |  min time  |  avg time  |  max time  |%varavg| %total
---------------------------------------------------------------
Pair    | 42.299     | 1377.8     | 2032       |1583.2 |  3.99
Bond    | 1.8988     | 14.886     | 38.204     | 200.9 |  0.04
Neigh   | 21569      | 22572      | 23348      | 335.4 | 65.38
Comm    | 2133.4     | 5998.7     | 9934.2     |2535.7 | 17.37
Output  | 0.59293    | 1.6585     | 2.9147     |  53.9 |  0.00
Modify  | 2188.2     | 4158.4     | 6952.8     |2030.4 | 12.04
Other   |            | 403.4      |            |       |  1.17

Nlocal:        3380.17 ave        8238 max           8 min
Histogram: 25 167 0 48 24 90 75 25 22 4
Nghost:          19753 ave       38322 max        7606 min
Histogram: 204 36 0 0 0 0 100 88 35 17
Neighs:        53772.3 ave       78982 max           0 min
Histogram: 47 10 14 4 15 41 87 51 44 167

Total # of neighbors = 25810723
Ave neighs/atom = 15.908172
Ave special neighs/atom = 0.18118414
Neighbor list builds = 363776
Dangerous builds = 0
========================================
Flow simulation complete
========================================
System init for write_data ...
Generated 0 of 15 mixed pair_coeff terms from geometric mixing rule
Last active /omp style is bond_style fene/omp
WARNING: More than one fix rigid (src/RIGID/fix_rigid.cpp:712)
WARNING: More than one fix rigid (src/RIGID/fix_rigid.cpp:712)
WARNING: More than one fix rigid (src/RIGID/fix_rigid.cpp:712)
WARNING: Not all mixed pair coeffs generated from mixing. Use write_data with 'pair ij' option to store all pair coeffs. (src/write_data.cpp:364)
Total wall time: 9:37:46
======================================
Running post-processing...
======================================
Generating convergence plot...
Plot saved to ./output_plots/convergence_plots/walled_slab_support_5beads_tall_3_1.5_1.4_20000000_1.5_1.4_2000000_convergence.png
Generating stress profiles...
Warning: Could not find data file (tried walled_slab_support_5beads_tall_3.data and walled_slab_support_5beads_tall_3_1.5_1.4_20000000_1.5_1.4_2000000.data), using default box dimensions
Stress profile saved to ./output_plots/walled_slab_support_5beads_tall_3_1.5_1.4_20000000_1.5_1.4_2000000_stress.png
No volume data found for walled_slab_support_5beads_tall_3_1.5_1.4_20000000_1.5_1.4_2000000, skipping volume fraction plots
Generating piston plots...
Read 40 position points, 40 velocity points
Piston plot saved to ./output_plots/walled_slab_support_5beads_tall_3_1.5_1.4_20000000_1.5_1.4_2000000_piston.png

=== Piston Summary ===
Initial position: 87.8742
Final position:   83.9079
Total displacement: -3.9662
Steady-state velocity: -9.98e-04 ± 2.63e-03
Generating computational efficiency plot...
Found data file: ./data_files/walled_slab_support_5beads_tall_3_1.5_1.4_20000000.data
Mobile atoms: 1482595
Tracking info written to /jet/home/dpollard/Documents/lammps_work/tracking.txt
Saved /jet/home/dpollard/Documents/lammps_work/time_vs_atoms.png
Saved /jet/home/dpollard/Documents/lammps_work/time_vs_timesteps.png
======================================
Done! Results are in: /jet/home/dpollard/Documents/lammps_runs/slab_with_flow_walled_slab_support_5beads_tall_3_1.5_1.4_20000000_1.5_1.4_20260121_020318
======================================
