======================================
Working directory: /jet/home/dpollard/Documents/lammps_runs/slab_with_flow_walled_slab_support_5beads_10x10x5_rho6_extra_padding43_1.5_1.4_10000000_1.5_1.4_20260116_121554
Trajectory directory (scratch): /ocean/projects/chm250028p/dpollard/lammps_trajectories/slab_with_flow_walled_slab_support_5beads_10x10x5_rho6_extra_padding43_1.5_1.4_10000000_1.5_1.4_20260116_121554
======================================
Running LAMMPS in slab_with_flow with:
  dataname=walled_slab_support_5beads_10x10x5_rho6_extra_padding43_1.5_1.4_10000000
  epsSS=1.5, epsSP=1.4
  nsteps=50000, oldsteps=0, totsteps=50000
SLURM tasks per node: 120
SLURM CPUs per task: 1
SLURM_GPUS_ON_NODE: 
GPUs allocated: 
Running CPU-only with 480 tasks
LAMMPS (22 Jul 2025)
  using 1 OpenMP thread(s) per MPI task
using multi-threaded neighbor list subroutines
Reading data file ...
  orthogonal box = (-6.8704069 -6.8704069 -4.3828458) to (93.870407 93.870407 59.882846)
  8 by 10 by 6 MPI processor grid
  reading atoms ...
  1323878 atoms
  scanning bonds ...
  3 = max bonds/atom
  orthogonal box = (-6.8704069 -6.8704069 -4.3828458) to (93.870407 93.870407 59.882846)
  8 by 10 by 6 MPI processor grid
  reading bonds ...
  143511 bonds
Finding 1-2 1-3 1-4 neighbors ...
  special bond factors lj:    0        0        0       
  special bond factors coul:  0        0        0       
     4 = max # of 1-2 neighbors
     4 = max # of 1-3 neighbors
     8 = max # of 1-4 neighbors
    12 = max # of special neighbors
  special bonds CPU = 0.130 seconds
  read_data CPU = 8.796 seconds
========================================
Flow simulation: walled_slab_support_5beads_10x10x5_rho6_extra_padding43_1.5_1.4_10000000
Interaction: epsSS=1.5, epsSP=1.4
Production steps: 50000
Piston force per bead: -0.1
========================================
126752 atoms in group polymer
310822 atoms in group solvent
109654 atoms in group support
109654 atoms in group piston
666996 atoms in group walls
437574 atoms in group mobile
656882 atoms in group gel_system
Finding 1-2 1-3 1-4 neighbors ...
  special bond factors lj:    0        1        1       
  special bond factors coul:  0        1        1       
     4 = max # of 1-2 neighbors
    12 = max # of special neighbors
  special bonds CPU = 0.043 seconds
  1 rigid bodies with 109654 atoms
  1 rigid bodies with 109654 atoms
  1 rigid bodies with 666996 atoms
========================================
Phase 1: Soft push to resolve solvent-piston overlaps
========================================
Generated 0 of 15 mixed pair_coeff terms from geometric mixing rule
Hybrid pair style last /omp style soft
Last active /omp style is bond_style fene/omp
WARNING: More than one fix rigid (src/RIGID/fix_rigid.cpp:712)
WARNING: More than one fix rigid (src/RIGID/fix_rigid.cpp:712)
WARNING: More than one fix rigid (src/RIGID/fix_rigid.cpp:712)
Neighbor list info ...
  update: every = 1 steps, delay = 0 steps, check = yes
  max neighbors/atom: 2000, page size: 100000
  master list distance cutoff = 2.8
  ghost atom cutoff = 5
  binsize = 1.4, bins = 72 72 46
  2 neighbor lists, perpetual/occasional/extra = 2 0 0
  (1) pair lj/cut, perpetual
      attributes: half, newton on, omp, cut 2.8
      pair build: half/bin/newton/omp
      stencil: half/bin/3d
      bin: standard
  (2) pair soft, perpetual, skip from (1)
      attributes: half, newton on, omp
      pair build: skip/omp
      stencil: none
      bin: none
Setting up Verlet run ...
  Unit style    : lj
  Current step  : 0
  Time step     : 0.005
Per MPI rank memory allocation (min/avg/max) = 16.79 | 23.64 | 39.16 Mbytes
   Step          Temp          PotEng         KinEng         TotEng         Press          Volume           Lx             Ly             Lz      
         0   0             -0.032144261    0             -0.032144261    0.021388102    652213.97      100.74081      100.74081      64.265692    
      1000   1.164402      -0.20198948     0.57730152     0.37531204     2.0089331      652213.97      100.74081      100.74081      64.265692    
Loop time of 28.8518 on 480 procs for 1000 steps with 1323878 atoms

Performance: 14973.052 tau/day, 34.660 timesteps/s, 45.885 Matom-step/s
99.3% CPU use with 480 MPI tasks x 1 OpenMP threads

MPI task timing breakdown:
Section |  min time  |  avg time  |  max time  |%varavg| %total
---------------------------------------------------------------
Pair    | 0.52061    | 1.126      | 1.8307     |  19.4 |  3.90
Bond    | 0.0035114  | 0.017652   | 0.038863   |   5.4 |  0.06
Neigh   | 23.767     | 24.244     | 24.686     |   4.9 | 84.03
Comm    | 0.97559    | 1.9825     | 3.1215     |  30.8 |  6.87
Output  | 0.0038769  | 0.024864   | 0.044002   |   7.5 |  0.09
Modify  | 0.73474    | 1.2469     | 1.8867     |  18.7 |  4.32
Other   |            | 0.2101     |            |       |  0.73

Nlocal:        2758.08 ave        5678 max        1150 min
Histogram: 192 0 56 40 0 79 19 30 39 25
Nghost:        14309.8 ave       27886 max        7069 min
Histogram: 144 16 96 62 10 24 96 0 0 32
Neighs:        75040.9 ave      139759 max       22537 min
Histogram: 3 19 132 102 52 64 41 21 20 26

Total # of neighbors = 36019633
Ave neighs/atom = 27.207668
Ave special neighs/atom = 0.21680397
Neighbor list builds = 487
Dangerous builds = 0
Soft push complete - overlaps resolved
========================================
Phase 2: Switching to full LJ interactions
========================================
Generated 0 of 15 mixed pair_coeff terms from geometric mixing rule
Last active /omp style is bond_style fene/omp
WARNING: More than one fix rigid (src/RIGID/fix_rigid.cpp:712)
WARNING: More than one fix rigid (src/RIGID/fix_rigid.cpp:712)
WARNING: More than one fix rigid (src/RIGID/fix_rigid.cpp:712)
Neighbor list info ...
  update: every = 1 steps, delay = 0 steps, check = yes
  max neighbors/atom: 2000, page size: 100000
  master list distance cutoff = 2.8
  ghost atom cutoff = 5
  binsize = 1.4, bins = 72 72 46
  1 neighbor lists, perpetual/occasional/extra = 1 0 0
  (1) pair lj/cut/omp, perpetual
      attributes: half, newton on, omp
      pair build: half/bin/newton/omp
      stencil: half/bin/3d
      bin: standard
Setting up cg style minimization ...
  Unit style    : lj
  Current step  : 1000
Per MPI rank memory allocation (min/avg/max) = 18.78 | 26.14 | 43.39 Mbytes
   Step          Temp          PotEng         KinEng         TotEng         Press          Volume           Lx             Ly             Lz      
      1000   1.164402      -0.32345084     0.57730152     0.25385068     2.2086086      652213.97      100.74081      100.74081      64.265692    
      1483   1.164402      -0.96444632     0.57730152    -0.3871448     -2.1845677      652213.97      100.74081      100.74081      64.265692    
Loop time of 7.28216 on 480 procs for 483 steps with 1323878 atoms

99.3% CPU use with 480 MPI tasks x 1 OpenMP threads

Minimization stats:
  Stopping criterion = energy tolerance
  Energy initial, next-to-last, final = 
    -0.323450837283187 -0.964362977505852 -0.964446322922653
  Force two-norm initial, final = 33796.262 763.18642
  Force max component initial, final = 7715.4509 181.10987
  Final line search alpha, max atom move = 0.00043943363 0.079585765
  Iterations, force evaluations = 483 522

MPI task timing breakdown:
Section |  min time  |  avg time  |  max time  |%varavg| %total
---------------------------------------------------------------
Pair    | 0.04054    | 0.43008    | 1.1022     |  32.3 |  5.91
Bond    | 0.00059245 | 0.0073565  | 0.017797   |   4.3 |  0.10
Neigh   | 5.3289     | 5.4321     | 5.5293     |   2.2 | 74.60
Comm    | 0.37305    | 0.91858    | 1.5294     |  26.7 | 12.61
Output  | 0          | 0          | 0          |   0.0 |  0.00
Modify  | 0.0056038  | 0.016991   | 0.036058   |   6.4 |  0.23
Other   |            | 0.477      |            |       |  6.55

Nlocal:        2758.08 ave        5658 max        1258 min
Histogram: 192 0 69 27 0 80 36 12 39 25
Nghost:        14325.9 ave       27809 max        7430 min
Histogram: 144 16 96 72 0 24 96 0 0 32
Neighs:        38697.6 ave       65101 max        2175 min
Histogram: 30 50 65 40 7 24 18 40 143 63

Total # of neighbors = 18574846
Ave neighs/atom = 14.030633
Ave special neighs/atom = 0.21680397
Neighbor list builds = 119
Dangerous builds = 2
Generated 0 of 15 mixed pair_coeff terms from geometric mixing rule
Last active /omp style is bond_style fene/omp
WARNING: More than one fix rigid (src/RIGID/fix_rigid.cpp:712)
WARNING: More than one fix rigid (src/RIGID/fix_rigid.cpp:712)
WARNING: More than one fix rigid (src/RIGID/fix_rigid.cpp:712)
Setting up Verlet run ...
  Unit style    : lj
  Current step  : 1483
  Time step     : 0.005
Per MPI rank memory allocation (min/avg/max) = 17.66 | 24.37 | 40.01 Mbytes
   Step          Temp          PotEng         KinEng         TotEng         Press          Volume           Lx             Ly             Lz      
      1483   1.164402      -0.96444632     0.57730152    -0.3871448     -0.69615306     652213.97      100.74081      100.74081      64.265692    
WARNING: Lost atoms: original 1323878 current 1323877
For more information see https://docs.lammps.org/err0008 (src/thermo.cpp:532)
      5000   3.1178585e-46 -0.95579519     1.5458113e-46 -0.95579519    -2.1224476      652213.97      100.74081      100.74081      64.265692    
      6483   1.7946294e-46 -0.96766077     8.8976406e-47 -0.96766077    -2.1077176      652213.97      100.74081      100.74081      64.265692    
Loop time of 41.8707 on 480 procs for 5000 steps with 1323877 atoms

Performance: 51587.416 tau/day, 119.415 timesteps/s, 158.091 Matom-step/s
99.3% CPU use with 480 MPI tasks x 1 OpenMP threads

MPI task timing breakdown:
Section |  min time  |  avg time  |  max time  |%varavg| %total
---------------------------------------------------------------
Pair    | 0.14099    | 2.2491     | 3.504      |  68.0 |  5.37
Bond    | 0.0041293  | 0.024146   | 0.043172   |   7.0 |  0.06
Neigh   | 27.839     | 28.393     | 28.926     |   5.3 | 67.81
Comm    | 3.4055     | 7.0682     | 10.574     |  66.8 | 16.88
Output  | 0.01924    | 0.15588    | 0.25651    |  18.1 |  0.37
Modify  | 1.8217     | 3.3302     | 5.5129     |  48.4 |  7.95
Other   |            | 0.6505     |            |       |  1.55

Nlocal:        2758.08 ave        5717 max        1255 min
Histogram: 192 0 78 18 0 80 38 11 39 24
Nghost:        14315.4 ave       28283 max        7456 min
Histogram: 144 16 96 72 0 26 94 0 3 29
Neighs:        38145.8 ave       58995 max         954 min
Histogram: 22 19 34 66 51 6 33 13 84 152

Total # of neighbors = 18309966
Ave neighs/atom = 13.830564
Ave special neighs/atom = 0.21680413
Neighbor list builds = 614
Dangerous builds = 106
========================================
Phase 3: Production flow with piston forcing
========================================
  1 rigid bodies with 109654 atoms
Generated 0 of 15 mixed pair_coeff terms from geometric mixing rule
Last active /omp style is bond_style fene/omp
WARNING: More than one fix rigid (src/RIGID/fix_rigid.cpp:712)
WARNING: More than one fix rigid (src/RIGID/fix_rigid.cpp:712)
WARNING: More than one fix rigid (src/RIGID/fix_rigid.cpp:712)
Setting up Verlet run ...
  Unit style    : lj
  Current step  : 6483
  Time step     : 0.005
Per MPI rank memory allocation (min/avg/max) = 16.29 | 22.92 | 38.14 Mbytes
   Step          Temp          PotEng         KinEng         TotEng         Press          Volume           Lx             Ly             Lz      
      6483   1.7946335e-46 -0.96766077     8.8976406e-47 -0.96766077    -2.0981145      652213.97      100.74081      100.74081      64.265692    
Loop time of 1.10775e-05 on 480 procs for 0 steps with 1323877 atoms

111.1% CPU use with 480 MPI tasks x 1 OpenMP threads

MPI task timing breakdown:
Section |  min time  |  avg time  |  max time  |%varavg| %total
---------------------------------------------------------------
Pair    | 0          | 0          | 0          |   0.0 |  0.00
Bond    | 0          | 0          | 0          |   0.0 |  0.00
Neigh   | 0          | 0          | 0          |   0.0 |  0.00
Comm    | 0          | 0          | 0          |   0.0 |  0.00
Output  | 0          | 0          | 0          |   0.0 |  0.00
Modify  | 0          | 0          | 0          |   0.0 |  0.00
Other   |            | 1.108e-05  |            |       |100.00

Nlocal:        2758.08 ave        5717 max        1255 min
Histogram: 192 0 77 19 0 80 37 12 39 24
Nghost:        14315.8 ave       28285 max        7459 min
Histogram: 144 16 96 72 0 26 94 0 3 29
Neighs:        38152.4 ave       59201 max         972 min
Histogram: 22 19 35 66 50 7 33 13 90 145

Total # of neighbors = 18313134
Ave neighs/atom = 13.832957
Ave special neighs/atom = 0.21680413
Neighbor list builds = 0
Dangerous builds = 0
ERROR on proc 0: Substitution for illegal variable c_rg_tensor[4]
For more information see https://docs.lammps.org/err0013 (src/input.cpp:665)
ERROR on proc 87: Substitution for illegal variable c_rg_tensor[4]
For more information see https://docs.lammps.org/err0013 (src/input.cpp:665)
ERROR on proc 5: Substitution for illegal variable c_rg_tensor[4]
For more information see https://docs.lammps.org/err0013 (src/input.cpp:665)
ERROR on proc 36: Substitution for illegal variable c_rg_tensor[4]
For more information see https://docs.lammps.org/err0013 (src/input.cpp:665)
ERROR on proc 110: Substitution for illegal variable c_rg_tensor[4]
For more information see https://docs.lammps.org/err0013 (src/input.cpp:665)
ERROR on proc 65: Substitution for illegal variable c_rg_tensor[4]
For more information see https://docs.lammps.org/err0013 (src/input.cpp:665)
ERROR on proc 29: Substitution for illegal variable c_rg_tensor[4]
For more information see https://docs.lammps.org/err0013 (src/input.cpp:665)
ERROR on proc 60: Substitution for illegal variable c_rg_tensor[4]
For more information see https://docs.lammps.org/err0013 (src/input.cpp:665)
ERROR on proc 117: Substitution for illegal variable c_rg_tensor[4]
For more information see https://docs.lammps.org/err0013 (src/input.cpp:665)
ERROR on proc 86: Substitution for illegal variable c_rg_tensor[4]
For more information see https://docs.lammps.org/err0013 (src/input.cpp:665)
ERROR on proc 84: Substitution for illegal variable c_rg_tensor[4]
For more information see https://docs.lammps.org/err0013 (src/input.cpp:665)
ERROR on proc 70: Substitution for illegal variable c_rg_tensor[4]
For more information see https://docs.lammps.org/err0013 (src/input.cpp:665)
ERROR on proc 119: Substitution for illegal variable c_rg_tensor[4]
For more information see https://docs.lammps.org/err0013 (src/input.cpp:665)
ERROR on proc 107: Substitution for illegal variable c_rg_tensor[4]
For more information see https://docs.lammps.org/err0013 (src/input.cpp:665)
ERROR on proc 72: Substitution for illegal variable c_rg_tensor[4]
ERROR on proc 94: Substitution for illegal variable c_rg_tensor[4]
For more information see https://docs.lammps.org/err0013 (src/input.cpp:665)
For more information see https://docs.lammps.org/err0013 (src/input.cpp:665)
ERROR on proc 45: Substitution for illegal variable c_rg_tensor[4]
For more information see https://docs.lammps.org/err0013 (src/input.cpp:665)
ERROR on proc 63: Substitution for illegal variable c_rg_tensor[4]
For more information see https://docs.lammps.org/err0013 (src/input.cpp:665)
ERROR on proc 21: Substitution for illegal variable c_rg_tensor[4]
For more information see https://docs.lammps.org/err0013 (src/input.cpp:665)
ERROR on proc 50: Substitution for illegal variable c_rg_tensor[4]
For more information see https://docs.lammps.org/err0013 (src/input.cpp:665)
ERROR on proc 37: Substitution for illegal variable c_rg_tensor[4]
For more information see https://docs.lammps.org/err0013 (src/input.cpp:665)
ERROR on proc 10: Substitution for illegal variable c_rg_tensor[4]
For more information see https://docs.lammps.org/err0013 (src/input.cpp:665)
ERROR on proc 103: Substitution for illegal variable c_rg_tensor[4]
For more information see https://docs.lammps.org/err0013 (src/input.cpp:665)
ERROR on proc 79: Substitution for illegal variable c_rg_tensor[4]
For more information see https://docs.lammps.org/err0013 (src/input.cpp:665)
ERROR on proc 64: Substitution for illegal variable c_rg_tensor[4]
For more information see https://docs.lammps.org/err0013 (src/input.cpp:665)
ERROR on proc 7: Substitution for illegal variable c_rg_tensor[4]
For more information see https://docs.lammps.org/err0013 (src/input.cpp:665)
ERROR on proc 38: Substitution for illegal variable c_rg_tensor[4]
For more information see https://docs.lammps.org/err0013 (src/input.cpp:665)
ERROR on proc 33: Substitution for illegal variable c_rg_tensor[4]
For more information see https://docs.lammps.org/err0013 (src/input.cpp:665)
ERROR on proc 27: Substitution for illegal variable c_rg_tensor[4]
For more information see https://docs.lammps.org/err0013 (src/input.cpp:665)
ERROR on proc 109: Substitution for illegal variable c_rg_tensor[4]
For more information see https://docs.lammps.org/err0013 (src/input.cpp:665)
ERROR on proc 67: Substitution for illegal variable c_rg_tensor[4]
For more information see https://docs.lammps.org/err0013 (src/input.cpp:665)
ERROR on proc 71: Substitution for illegal variable c_rg_tensor[4]
For more information see https://docs.lammps.org/err0013 (src/input.cpp:665)
ERROR on proc 91: Substitution for illegal variable c_rg_tensor[4]
For more information see https://docs.lammps.org/err0013 (src/input.cpp:665)
ERROR on proc 98: Substitution for illegal variable c_rg_tensor[4]
For more information see https://docs.lammps.org/err0013 (src/input.cpp:665)
ERROR on proc 97: Substitution for illegal variable c_rg_tensor[4]
For more information see https://docs.lammps.org/err0013 (src/input.cpp:665)
ERROR on proc 74: Substitution for illegal variable c_rg_tensor[4]
For more information see https://docs.lammps.org/err0013 (src/input.cpp:665)
ERROR on proc 99: Substitution for illegal variable c_rg_tensor[4]
For more information see https://docs.lammps.org/err0013 (src/input.cpp:665)
ERROR on proc 73: Substitution for illegal variable c_rg_tensor[4]
For more information see https://docs.lammps.org/err0013 (src/input.cpp:665)
ERROR on proc 114: Substitution for illegal variable c_rg_tensor[4]
For more information see https://docs.lammps.org/err0013 (src/input.cpp:665)
ERROR on proc 102: Substitution for illegal variable c_rg_tensor[4]
For more information see https://docs.lammps.org/err0013 (src/input.cpp:665)
ERROR on proc 100: Substitution for illegal variable c_rg_tensor[4]
For more information see https://docs.lammps.org/err0013 (src/input.cpp:665)
ERROR on proc 85: Substitution for illegal variable c_rg_tensor[4]
For more information see https://docs.lammps.org/err0013 (src/input.cpp:665)
ERROR on proc 204: Substitution for illegal variable c_rg_tensor[4]
For more information see https://docs.lammps.org/err0013 (src/input.cpp:665)
ERROR on proc 41: Substitution for illegal variable c_rg_tensor[4]
For more information see https://docs.lammps.org/err0013 (src/input.cpp:665)
ERROR on proc 42: Substitution for illegal variable c_rg_tensor[4]
For more information see https://docs.lammps.org/err0013 (src/input.cpp:665)
ERROR on proc 32: Substitution for illegal variable c_rg_tensor[4]
For more information see https://docs.lammps.org/err0013 (src/input.cpp:665)
ERROR on proc 59: Substitution for illegal variable c_rg_tensor[4]
For more information see https://docs.lammps.org/err0013 (src/input.cpp:665)
ERROR on proc 39: Substitution for illegal variable c_rg_tensor[4]
For more information see https://docs.lammps.org/err0013 (src/input.cpp:665)
ERROR on proc 3: Substitution for illegal variable c_rg_tensor[4]
For more information see https://docs.lammps.org/err0013 (src/input.cpp:665)
ERROR on proc 18: Substitution for illegal variable c_rg_tensor[4]
For more information see https://docs.lammps.org/err0013 (src/input.cpp:665)
ERROR on proc 15: Substitution for illegal variable c_rg_tensor[4]
For more information see https://docs.lammps.org/err0013 (src/input.cpp:665)
ERROR on proc 26: Substitution for illegal variable c_rg_tensor[4]
For more information see https://docs.lammps.org/err0013 (src/input.cpp:665)
ERROR on proc 56: Substitution for illegal variable c_rg_tensor[4]
For more information see https://docs.lammps.org/err0013 (src/input.cpp:665)
ERROR on proc 82: Substitution for illegal variable c_rg_tensor[4]
For more information see https://docs.lammps.org/err0013 (src/input.cpp:665)
ERROR on proc 208: Substitution for illegal variable c_rg_tensor[4]
For more information see https://docs.lammps.org/err0013 (src/input.cpp:665)
ERROR on proc 49: Substitution for illegal variable c_rg_tensor[4]
For more information see https://docs.lammps.org/err0013 (src/input.cpp:665)
ERROR on proc 30: Substitution for illegal variable c_rg_tensor[4]
For more information see https://docs.lammps.org/err0013 (src/input.cpp:665)
ERROR on proc 81: Substitution for illegal variable c_rg_tensor[4]
For more information see https://docs.lammps.org/err0013 (src/input.cpp:665)
ERROR on proc 93: Substitution for illegal variable c_rg_tensor[4]
For more information see https://docs.lammps.org/err0013 (src/input.cpp:665)
ERROR on proc 325: Substitution for illegal variable c_rg_tensor[4]
For more information see https://docs.lammps.org/err0013 (src/input.cpp:665)
ERROR on proc 51: Substitution for illegal variable c_rg_tensor[4]
For more information see https://docs.lammps.org/err0013 (src/input.cpp:665)
ERROR on proc 323: Substitution for illegal variable c_rg_tensor[4]
For more information see https://docs.lammps.org/err0013 (src/input.cpp:665)
ERROR on proc 216: Substitution for illegal variable c_rg_tensor[4]
For more information see https://docs.lammps.org/err0013 (src/input.cpp:665)
ERROR on proc 83: Substitution for illegal variable c_rg_tensor[4]
For more information see https://docs.lammps.org/err0013 (src/input.cpp:665)
ERROR on proc 20: Substitution for illegal variable c_rg_tensor[4]
For more information see https://docs.lammps.org/err0013 (src/input.cpp:665)
ERROR on proc 9: Substitution for illegal variable c_rg_tensor[4]
For more information see https://docs.lammps.org/err0013 (src/input.cpp:665)
ERROR on proc 239: Substitution for illegal variable c_rg_tensor[4]
For more information see https://docs.lammps.org/err0013 (src/input.cpp:665)
ERROR on proc 106: Substitution for illegal variable c_rg_tensor[4]
For more information see https://docs.lammps.org/err0013 (src/input.cpp:665)
ERROR on proc 89: Substitution for illegal variable c_rg_tensor[4]
For more information see https://docs.lammps.org/err0013 (src/input.cpp:665)
ERROR on proc 104: Substitution for illegal variable c_rg_tensor[4]
For more information see https://docs.lammps.org/err0013 (src/input.cpp:665)
ERROR on proc 200: Substitution for illegal variable c_rg_tensor[4]
For more information see https://docs.lammps.org/err0013 (src/input.cpp:665)
ERROR on proc 328: Substitution for illegal variable c_rg_tensor[4]
For more information see https://docs.lammps.org/err0013 (src/input.cpp:665)
ERROR on proc 118: Substitution for illegal variable c_rg_tensor[4]
For more information see https://docs.lammps.org/err0013 (src/input.cpp:665)
ERROR on proc 52: Substitution for illegal variable c_rg_tensor[4]
For more information see https://docs.lammps.org/err0013 (src/input.cpp:665)
ERROR on proc 23: Substitution for illegal variable c_rg_tensor[4]
For more information see https://docs.lammps.org/err0013 (src/input.cpp:665)
ERROR on proc 14: Substitution for illegal variable c_rg_tensor[4]
For more information see https://docs.lammps.org/err0013 (src/input.cpp:665)
ERROR on proc 201: Substitution for illegal variable c_rg_tensor[4]
For more information see https://docs.lammps.org/err0013 (src/input.cpp:665)
ERROR on proc 68: Substitution for illegal variable c_rg_tensor[4]
For more information see https://docs.lammps.org/err0013 (src/input.cpp:665)
ERROR on proc 236: Substitution for illegal variable c_rg_tensor[4]
For more information see https://docs.lammps.org/err0013 (src/input.cpp:665)
ERROR on proc 344: Substitution for illegal variable c_rg_tensor[4]
For more information see https://docs.lammps.org/err0013 (src/input.cpp:665)
ERROR on proc 11: Substitution for illegal variable c_rg_tensor[4]
For more information see https://docs.lammps.org/err0013 (src/input.cpp:665)
ERROR on proc 8: Substitution for illegal variable c_rg_tensor[4]
For more information see https://docs.lammps.org/err0013 (src/input.cpp:665)
ERROR on proc 28: Substitution for illegal variable c_rg_tensor[4]
For more information see https://docs.lammps.org/err0013 (src/input.cpp:665)
ERROR on proc 24: Substitution for illegal variable c_rg_tensor[4]
For more information see https://docs.lammps.org/err0013 (src/input.cpp:665)
ERROR on proc 203: Substitution for illegal variable c_rg_tensor[4]
For more information see https://docs.lammps.org/err0013 (src/input.cpp:665)
ERROR on proc 47: Substitution for illegal variable c_rg_tensor[4]
For more information see https://docs.lammps.org/err0013 (src/input.cpp:665)
ERROR on proc 92: Substitution for illegal variable c_rg_tensor[4]
For more information see https://docs.lammps.org/err0013 (src/input.cpp:665)
ERROR on proc 77: Substitution for illegal variable c_rg_tensor[4]
For more information see https://docs.lammps.org/err0013 (src/input.cpp:665)
ERROR on proc 233: Substitution for illegal variable c_rg_tensor[4]
For more information see https://docs.lammps.org/err0013 (src/input.cpp:665)
ERROR on proc 54: Substitution for illegal variable c_rg_tensor[4]
For more information see https://docs.lammps.org/err0013 (src/input.cpp:665)
ERROR on proc 53: Substitution for illegal variable c_rg_tensor[4]
For more information see https://docs.lammps.org/err0013 (src/input.cpp:665)
ERROR on proc 62: Substitution for illegal variable c_rg_tensor[4]
For more information see https://docs.lammps.org/err0013 (src/input.cpp:665)
ERROR on proc 22: Substitution for illegal variable c_rg_tensor[4]
For more information see https://docs.lammps.org/err0013 (src/input.cpp:665)
ERROR on proc 108: Substitution for illegal variable c_rg_tensor[4]
For more information see https://docs.lammps.org/err0013 (src/input.cpp:665)
ERROR on proc 221: Substitution for illegal variable c_rg_tensor[4]
For more information see https://docs.lammps.org/err0013 (src/input.cpp:665)
ERROR on proc 115: Substitution for illegal variable c_rg_tensor[4]
For more information see https://docs.lammps.org/err0013 (src/input.cpp:665)
ERROR on proc 46: Substitution for illegal variable c_rg_tensor[4]
For more information see https://docs.lammps.org/err0013 (src/input.cpp:665)
ERROR on proc 113: Substitution for illegal variable c_rg_tensor[4]
For more information see https://docs.lammps.org/err0013 (src/input.cpp:665)
ERROR on proc 1: Substitution for illegal variable c_rg_tensor[4]
For more information see https://docs.lammps.org/err0013 (src/input.cpp:665)
ERROR on proc 69: Substitution for illegal variable c_rg_tensor[4]
For more information see https://docs.lammps.org/err0013 (src/input.cpp:665)
ERROR on proc 88: Substitution for illegal variable c_rg_tensor[4]
For more information see https://docs.lammps.org/err0013 (src/input.cpp:665)
ERROR on proc 2: Substitution for illegal variable c_rg_tensor[4]
For more information see https://docs.lammps.org/err0013 (src/input.cpp:665)
ERROR on proc 61: Substitution for illegal variable c_rg_tensor[4]
For more information see https://docs.lammps.org/err0013 (src/input.cpp:665)
ERROR on proc 35: Substitution for illegal variable c_rg_tensor[4]
For more information see https://docs.lammps.org/err0013 (src/input.cpp:665)
ERROR on proc 55: Substitution for illegal variable c_rg_tensor[4]
For more information see https://docs.lammps.org/err0013 (src/input.cpp:665)
ERROR on proc 163: Substitution for illegal variable c_rg_tensor[4]
For more information see https://docs.lammps.org/err0013 (src/input.cpp:665)
ERROR on proc 261: Substitution for illegal variable c_rg_tensor[4]
For more information see https://docs.lammps.org/err0013 (src/input.cpp:665)
ERROR on proc 96: Substitution for illegal variable c_rg_tensor[4]
For more information see https://docs.lammps.org/err0013 (src/input.cpp:665)
ERROR on proc 95: Substitution for illegal variable c_rg_tensor[4]
For more information see https://docs.lammps.org/err0013 (src/input.cpp:665)
ERROR on proc 101: Substitution for illegal variable c_rg_tensor[4]
For more information see https://docs.lammps.org/err0013 (src/input.cpp:665)
ERROR on proc 57: Substitution for illegal variable c_rg_tensor[4]
For more information see https://docs.lammps.org/err0013 (src/input.cpp:665)
ERROR on proc 6: Substitution for illegal variable c_rg_tensor[4]
For more information see https://docs.lammps.org/err0013 (src/input.cpp:665)
ERROR on proc 25: Substitution for illegal variable c_rg_tensor[4]
For more information see https://docs.lammps.org/err0013 (src/input.cpp:665)
ERROR on proc 4: Substitution for illegal variable c_rg_tensor[4]
For more information see https://docs.lammps.org/err0013 (src/input.cpp:665)
ERROR on proc 75: Substitution for illegal variable c_rg_tensor[4]
For more information see https://docs.lammps.org/err0013 (src/input.cpp:665)
ERROR on proc 13: Substitution for illegal variable c_rg_tensor[4]
For more information see https://docs.lammps.org/err0013 (src/input.cpp:665)
ERROR on proc 219: Substitution for illegal variable c_rg_tensor[4]
For more information see https://docs.lammps.org/err0013 (src/input.cpp:665)
ERROR on proc 43: Substitution for illegal variable c_rg_tensor[4]
For more information see https://docs.lammps.org/err0013 (src/input.cpp:665)
ERROR on proc 12: Substitution for illegal variable c_rg_tensor[4]
For more information see https://docs.lammps.org/err0013 (src/input.cpp:665)
ERROR on proc 34: Substitution for illegal variable c_rg_tensor[4]
For more information see https://docs.lammps.org/err0013 (src/input.cpp:665)
ERROR on proc 80: Substitution for illegal variable c_rg_tensor[4]
For more information see https://docs.lammps.org/err0013 (src/input.cpp:665)
ERROR on proc 154: Substitution for illegal variable c_rg_tensor[4]
For more information see https://docs.lammps.org/err0013 (src/input.cpp:665)
ERROR on proc 112: Substitution for illegal variable c_rg_tensor[4]
For more information see https://docs.lammps.org/err0013 (src/input.cpp:665)
ERROR on proc 40: Substitution for illegal variable c_rg_tensor[4]
For more information see https://docs.lammps.org/err0013 (src/input.cpp:665)
ERROR on proc 31: Substitution for illegal variable c_rg_tensor[4]
For more information see https://docs.lammps.org/err0013 (src/input.cpp:665)
ERROR on proc 66: Substitution for illegal variable c_rg_tensor[4]
For more information see https://docs.lammps.org/err0013 (src/input.cpp:665)
ERROR on proc 169: Substitution for illegal variable c_rg_tensor[4]
For more information see https://docs.lammps.org/err0013 (src/input.cpp:665)
ERROR on proc 271: Substitution for illegal variable c_rg_tensor[4]
For more information see https://docs.lammps.org/err0013 (src/input.cpp:665)
ERROR on proc 111: Substitution for illegal variable c_rg_tensor[4]
For more information see https://docs.lammps.org/err0013 (src/input.cpp:665)
ERROR on proc 44: Substitution for illegal variable c_rg_tensor[4]
For more information see https://docs.lammps.org/err0013 (src/input.cpp:665)
ERROR on proc 165: Substitution for illegal variable c_rg_tensor[4]
For more information see https://docs.lammps.org/err0013 (src/input.cpp:665)
ERROR on proc 341: Substitution for illegal variable c_rg_tensor[4]
For more information see https://docs.lammps.org/err0013 (src/input.cpp:665)
ERROR on proc 16: Substitution for illegal variable c_rg_tensor[4]
For more information see https://docs.lammps.org/err0013 (src/input.cpp:665)
ERROR on proc 48: Substitution for illegal variable c_rg_tensor[4]
For more information see https://docs.lammps.org/err0013 (src/input.cpp:665)
ERROR on proc 116: Substitution for illegal variable c_rg_tensor[4]
For more information see https://docs.lammps.org/err0013 (src/input.cpp:665)
ERROR on proc 105: Substitution for illegal variable c_rg_tensor[4]
For more information see https://docs.lammps.org/err0013 (src/input.cpp:665)
ERROR on proc 90: Substitution for illegal variable c_rg_tensor[4]
For more information see https://docs.lammps.org/err0013 (src/input.cpp:665)
ERROR on proc 158: Substitution for illegal variable c_rg_tensor[4]
For more information see https://docs.lammps.org/err0013 (src/input.cpp:665)
ERROR on proc 327: Substitution for illegal variable c_rg_tensor[4]
For more information see https://docs.lammps.org/err0013 (src/input.cpp:665)
ERROR on proc 78: Substitution for illegal variable c_rg_tensor[4]
For more information see https://docs.lammps.org/err0013 (src/input.cpp:665)
ERROR on proc 58: Substitution for illegal variable c_rg_tensor[4]
For more information see https://docs.lammps.org/err0013 (src/input.cpp:665)
ERROR on proc 76: Substitution for illegal variable c_rg_tensor[4]
For more information see https://docs.lammps.org/err0013 (src/input.cpp:665)
ERROR on proc 19: Substitution for illegal variable c_rg_tensor[4]
For more information see https://docs.lammps.org/err0013 (src/input.cpp:665)
ERROR on proc 17: Substitution for illegal variable c_rg_tensor[4]
For more information see https://docs.lammps.org/err0013 (src/input.cpp:665)
ERROR on proc 127: Substitution for illegal variable c_rg_tensor[4]
For more information see https://docs.lammps.org/err0013 (src/input.cpp:665)
ERROR on proc 305: Substitution for illegal variable c_rg_tensor[4]
For more information see https://docs.lammps.org/err0013 (src/input.cpp:665)
ERROR on proc 175: Substitution for illegal variable c_rg_tensor[4]
For more information see https://docs.lammps.org/err0013 (src/input.cpp:665)
ERROR on proc 162: Substitution for illegal variable c_rg_tensor[4]
For more information see https://docs.lammps.org/err0013 (src/input.cpp:665)
ERROR on proc 159: Substitution for illegal variable c_rg_tensor[4]
For more information see https://docs.lammps.org/err0013 (src/input.cpp:665)
ERROR on proc 314: Substitution for illegal variable c_rg_tensor[4]
For more information see https://docs.lammps.org/err0013 (src/input.cpp:665)
ERROR on proc 192: Substitution for illegal variable c_rg_tensor[4]
For more information see https://docs.lammps.org/err0013 (src/input.cpp:665)
ERROR on proc 312: Substitution for illegal variable c_rg_tensor[4]
For more information see https://docs.lammps.org/err0013 (src/input.cpp:665)
ERROR on proc 187: Substitution for illegal variable c_rg_tensor[4]
For more information see https://docs.lammps.org/err0013 (src/input.cpp:665)
ERROR on proc 324: Substitution for illegal variable c_rg_tensor[4]
For more information see https://docs.lammps.org/err0013 (src/input.cpp:665)
ERROR on proc 212: Substitution for illegal variable c_rg_tensor[4]
For more information see https://docs.lammps.org/err0013 (src/input.cpp:665)
ERROR on proc 331: Substitution for illegal variable c_rg_tensor[4]
For more information see https://docs.lammps.org/err0013 (src/input.cpp:665)
ERROR on proc 214: Substitution for illegal variable c_rg_tensor[4]
For more information see https://docs.lammps.org/err0013 (src/input.cpp:665)
ERROR on proc 243: Substitution for illegal variable c_rg_tensor[4]
For more information see https://docs.lammps.org/err0013 (src/input.cpp:665)
ERROR on proc 230: Substitution for illegal variable c_rg_tensor[4]
For more information see https://docs.lammps.org/err0013 (src/input.cpp:665)
ERROR on proc 285: Substitution for illegal variable c_rg_tensor[4]
For more information see https://docs.lammps.org/err0013 (src/input.cpp:665)
ERROR on proc 224: Substitution for illegal variable c_rg_tensor[4]
For more information see https://docs.lammps.org/err0013 (src/input.cpp:665)
ERROR on proc 262: Substitution for illegal variable c_rg_tensor[4]
For more information see https://docs.lammps.org/err0013 (src/input.cpp:665)
ERROR on proc 191: Substitution for illegal variable c_rg_tensor[4]
For more information see https://docs.lammps.org/err0013 (src/input.cpp:665)
ERROR on proc 275: Substitution for illegal variable c_rg_tensor[4]
For more information see https://docs.lammps.org/err0013 (src/input.cpp:665)
ERROR on proc 217: Substitution for illegal variable c_rg_tensor[4]
For more information see https://docs.lammps.org/err0013 (src/input.cpp:665)
ERROR on proc 273: Substitution for illegal variable c_rg_tensor[4]
For more information see https://docs.lammps.org/err0013 (src/input.cpp:665)
ERROR on proc 170: Substitution for illegal variable c_rg_tensor[4]
For more information see https://docs.lammps.org/err0013 (src/input.cpp:665)
ERROR on proc 343: Substitution for illegal variable c_rg_tensor[4]
For more information see https://docs.lammps.org/err0013 (src/input.cpp:665)
ERROR on proc 218: Substitution for illegal variable c_rg_tensor[4]
For more information see https://docs.lammps.org/err0013 (src/input.cpp:665)
ERROR on proc 289: Substitution for illegal variable c_rg_tensor[4]
For more information see https://docs.lammps.org/err0013 (src/input.cpp:665)
ERROR on proc 211: Substitution for illegal variable c_rg_tensor[4]
For more information see https://docs.lammps.org/err0013 (src/input.cpp:665)
ERROR on proc 296: Substitution for illegal variable c_rg_tensor[4]
For more information see https://docs.lammps.org/err0013 (src/input.cpp:665)
ERROR on proc 231: Substitution for illegal variable c_rg_tensor[4]
For more information see https://docs.lammps.org/err0013 (src/input.cpp:665)
ERROR on proc 293: Substitution for illegal variable c_rg_tensor[4]
For more information see https://docs.lammps.org/err0013 (src/input.cpp:665)
ERROR on proc 206: Substitution for illegal variable c_rg_tensor[4]
For more information see https://docs.lammps.org/err0013 (src/input.cpp:665)
ERROR on proc 249: Substitution for illegal variable c_rg_tensor[4]
For more information see https://docs.lammps.org/err0013 (src/input.cpp:665)
ERROR on proc 185: Substitution for illegal variable c_rg_tensor[4]
For more information see https://docs.lammps.org/err0013 (src/input.cpp:665)
ERROR on proc 356: Substitution for illegal variable c_rg_tensor[4]
For more information see https://docs.lammps.org/err0013 (src/input.cpp:665)
ERROR on proc 193: Substitution for illegal variable c_rg_tensor[4]
For more information see https://docs.lammps.org/err0013 (src/input.cpp:665)
ERROR on proc 252: Substitution for illegal variable c_rg_tensor[4]
For more information see https://docs.lammps.org/err0013 (src/input.cpp:665)
ERROR on proc 197: Substitution for illegal variable c_rg_tensor[4]
For more information see https://docs.lammps.org/err0013 (src/input.cpp:665)
ERROR on proc 240: Substitution for illegal variable c_rg_tensor[4]
For more information see https://docs.lammps.org/err0013 (src/input.cpp:665)
ERROR on proc 213: Substitution for illegal variable c_rg_tensor[4]
For more information see https://docs.lammps.org/err0013 (src/input.cpp:665)
ERROR on proc 279: Substitution for illegal variable c_rg_tensor[4]
For more information see https://docs.lammps.org/err0013 (src/input.cpp:665)
ERROR on proc 160: Substitution for illegal variable c_rg_tensor[4]
For more information see https://docs.lammps.org/err0013 (src/input.cpp:665)
ERROR on proc 310: Substitution for illegal variable c_rg_tensor[4]
For more information see https://docs.lammps.org/err0013 (src/input.cpp:665)
ERROR on proc 182: Substitution for illegal variable c_rg_tensor[4]
For more information see https://docs.lammps.org/err0013 (src/input.cpp:665)
ERROR on proc 295: Substitution for illegal variable c_rg_tensor[4]
For more information see https://docs.lammps.org/err0013 (src/input.cpp:665)
ERROR on proc 168: Substitution for illegal variable c_rg_tensor[4]
For more information see https://docs.lammps.org/err0013 (src/input.cpp:665)
ERROR on proc 304: Substitution for illegal variable c_rg_tensor[4]
For more information see https://docs.lammps.org/err0013 (src/input.cpp:665)
ERROR on proc 167: Substitution for illegal variable c_rg_tensor[4]
For more information see https://docs.lammps.org/err0013 (src/input.cpp:665)
ERROR on proc 255: Substitution for illegal variable c_rg_tensor[4]
For more information see https://docs.lammps.org/err0013 (src/input.cpp:665)
ERROR on proc 164: Substitution for illegal variable c_rg_tensor[4]
For more information see https://docs.lammps.org/err0013 (src/input.cpp:665)
ERROR on proc 322: Substitution for illegal variable c_rg_tensor[4]
For more information see https://docs.lammps.org/err0013 (src/input.cpp:665)
ERROR on proc 122: Substitution for illegal variable c_rg_tensor[4]
For more information see https://docs.lammps.org/err0013 (src/input.cpp:665)
ERROR on proc 316: Substitution for illegal variable c_rg_tensor[4]
For more information see https://docs.lammps.org/err0013 (src/input.cpp:665)
ERROR on proc 152: Substitution for illegal variable c_rg_tensor[4]
For more information see https://docs.lammps.org/err0013 (src/input.cpp:665)
ERROR on proc 333: Substitution for illegal variable c_rg_tensor[4]
For more information see https://docs.lammps.org/err0013 (src/input.cpp:665)
ERROR on proc 129: Substitution for illegal variable c_rg_tensor[4]
For more information see https://docs.lammps.org/err0013 (src/input.cpp:665)
ERROR on proc 307: Substitution for illegal variable c_rg_tensor[4]
For more information see https://docs.lammps.org/err0013 (src/input.cpp:665)
ERROR on proc 131: Substitution for illegal variable c_rg_tensor[4]
For more information see https://docs.lammps.org/err0013 (src/input.cpp:665)
ERROR on proc 338: Substitution for illegal variable c_rg_tensor[4]
For more information see https://docs.lammps.org/err0013 (src/input.cpp:665)
ERROR on proc 126: Substitution for illegal variable c_rg_tensor[4]
For more information see https://docs.lammps.org/err0013 (src/input.cpp:665)
ERROR on proc 315: Substitution for illegal variable c_rg_tensor[4]
For more information see https://docs.lammps.org/err0013 (src/input.cpp:665)
ERROR on proc 151: Substitution for illegal variable c_rg_tensor[4]
For more information see https://docs.lammps.org/err0013 (src/input.cpp:665)
ERROR on proc 352: Substitution for illegal variable c_rg_tensor[4]
For more information see https://docs.lammps.org/err0013 (src/input.cpp:665)
ERROR on proc 173: Substitution for illegal variable c_rg_tensor[4]
For more information see https://docs.lammps.org/err0013 (src/input.cpp:665)
ERROR on proc 354: Substitution for illegal variable c_rg_tensor[4]
For more information see https://docs.lammps.org/err0013 (src/input.cpp:665)
ERROR on proc 178: Substitution for illegal variable c_rg_tensor[4]
For more information see https://docs.lammps.org/err0013 (src/input.cpp:665)
ERROR on proc 349: Substitution for illegal variable c_rg_tensor[4]
For more information see https://docs.lammps.org/err0013 (src/input.cpp:665)
ERROR on proc 140: Substitution for illegal variable c_rg_tensor[4]
For more information see https://docs.lammps.org/err0013 (src/input.cpp:665)
ERROR on proc 332: Substitution for illegal variable c_rg_tensor[4]
For more information see https://docs.lammps.org/err0013 (src/input.cpp:665)
ERROR on proc 157: Substitution for illegal variable c_rg_tensor[4]
For more information see https://docs.lammps.org/err0013 (src/input.cpp:665)
ERROR on proc 306: Substitution for illegal variable c_rg_tensor[4]
For more information see https://docs.lammps.org/err0013 (src/input.cpp:665)
ERROR on proc 124: Substitution for illegal variable c_rg_tensor[4]
For more information see https://docs.lammps.org/err0013 (src/input.cpp:665)
ERROR on proc 355: Substitution for illegal variable c_rg_tensor[4]
For more information see https://docs.lammps.org/err0013 (src/input.cpp:665)
ERROR on proc 227: Substitution for illegal variable c_rg_tensor[4]
For more information see https://docs.lammps.org/err0013 (src/input.cpp:665)
ERROR on proc 278: Substitution for illegal variable c_rg_tensor[4]
For more information see https://docs.lammps.org/err0013 (src/input.cpp:665)
ERROR on proc 223: Substitution for illegal variable c_rg_tensor[4]
For more information see https://docs.lammps.org/err0013 (src/input.cpp:665)
ERROR on proc 258: Substitution for illegal variable c_rg_tensor[4]
For more information see https://docs.lammps.org/err0013 (src/input.cpp:665)
ERROR on proc 222: Substitution for illegal variable c_rg_tensor[4]
For more information see https://docs.lammps.org/err0013 (src/input.cpp:665)
ERROR on proc 301: Substitution for illegal variable c_rg_tensor[4]
For more information see https://docs.lammps.org/err0013 (src/input.cpp:665)
ERROR on proc 238: Substitution for illegal variable c_rg_tensor[4]
For more information see https://docs.lammps.org/err0013 (src/input.cpp:665)
ERROR on proc 283: Substitution for illegal variable c_rg_tensor[4]
For more information see https://docs.lammps.org/err0013 (src/input.cpp:665)
ERROR on proc 190: Substitution for illegal variable c_rg_tensor[4]
For more information see https://docs.lammps.org/err0013 (src/input.cpp:665)
ERROR on proc 251: Substitution for illegal variable c_rg_tensor[4]
For more information see https://docs.lammps.org/err0013 (src/input.cpp:665)
ERROR on proc 125: Substitution for illegal variable c_rg_tensor[4]
For more information see https://docs.lammps.org/err0013 (src/input.cpp:665)
ERROR on proc 300: Substitution for illegal variable c_rg_tensor[4]
For more information see https://docs.lammps.org/err0013 (src/input.cpp:665)
ERROR on proc 171: Substitution for illegal variable c_rg_tensor[4]
For more information see https://docs.lammps.org/err0013 (src/input.cpp:665)
ERROR on proc 281: Substitution for illegal variable c_rg_tensor[4]
For more information see https://docs.lammps.org/err0013 (src/input.cpp:665)
ERROR on proc 156: Substitution for illegal variable c_rg_tensor[4]
For more information see https://docs.lammps.org/err0013 (src/input.cpp:665)
ERROR on proc 302: Substitution for illegal variable c_rg_tensor[4]
For more information see https://docs.lammps.org/err0013 (src/input.cpp:665)
ERROR on proc 146: Substitution for illegal variable c_rg_tensor[4]
For more information see https://docs.lammps.org/err0013 (src/input.cpp:665)
ERROR on proc 268: Substitution for illegal variable c_rg_tensor[4]
For more information see https://docs.lammps.org/err0013 (src/input.cpp:665)
ERROR on proc 180: Substitution for illegal variable c_rg_tensor[4]
For more information see https://docs.lammps.org/err0013 (src/input.cpp:665)
ERROR on proc 286: Substitution for illegal variable c_rg_tensor[4]
For more information see https://docs.lammps.org/err0013 (src/input.cpp:665)
ERROR on proc 172: Substitution for illegal variable c_rg_tensor[4]
For more information see https://docs.lammps.org/err0013 (src/input.cpp:665)
ERROR on proc 242: Substitution for illegal variable c_rg_tensor[4]
For more information see https://docs.lammps.org/err0013 (src/input.cpp:665)
ERROR on proc 136: Substitution for illegal variable c_rg_tensor[4]
For more information see https://docs.lammps.org/err0013 (src/input.cpp:665)
ERROR on proc 291: Substitution for illegal variable c_rg_tensor[4]
For more information see https://docs.lammps.org/err0013 (src/input.cpp:665)
ERROR on proc 143: Substitution for illegal variable c_rg_tensor[4]
For more information see https://docs.lammps.org/err0013 (src/input.cpp:665)
ERROR on proc 256: Substitution for illegal variable c_rg_tensor[4]
For more information see https://docs.lammps.org/err0013 (src/input.cpp:665)
ERROR on proc 148: Substitution for illegal variable c_rg_tensor[4]
For more information see https://docs.lammps.org/err0013 (src/input.cpp:665)
ERROR on proc 288: Substitution for illegal variable c_rg_tensor[4]
For more information see https://docs.lammps.org/err0013 (src/input.cpp:665)
ERROR on proc 123: Substitution for illegal variable c_rg_tensor[4]
For more information see https://docs.lammps.org/err0013 (src/input.cpp:665)
ERROR on proc 257: Substitution for illegal variable c_rg_tensor[4]
For more information see https://docs.lammps.org/err0013 (src/input.cpp:665)
ERROR on proc 121: Substitution for illegal variable c_rg_tensor[4]
For more information see https://docs.lammps.org/err0013 (src/input.cpp:665)
ERROR on proc 244: Substitution for illegal variable c_rg_tensor[4]
For more information see https://docs.lammps.org/err0013 (src/input.cpp:665)
ERROR on proc 234: Substitution for illegal variable c_rg_tensor[4]
For more information see https://docs.lammps.org/err0013 (src/input.cpp:665)
ERROR on proc 250: Substitution for illegal variable c_rg_tensor[4]
For more information see https://docs.lammps.org/err0013 (src/input.cpp:665)
ERROR on proc 225: Substitution for illegal variable c_rg_tensor[4]
For more information see https://docs.lammps.org/err0013 (src/input.cpp:665)
ERROR on proc 264: Substitution for illegal variable c_rg_tensor[4]
For more information see https://docs.lammps.org/err0013 (src/input.cpp:665)
ERROR on proc 228: Substitution for illegal variable c_rg_tensor[4]
For more information see https://docs.lammps.org/err0013 (src/input.cpp:665)
ERROR on proc 266: Substitution for illegal variable c_rg_tensor[4]
For more information see https://docs.lammps.org/err0013 (src/input.cpp:665)
ERROR on proc 195: Substitution for illegal variable c_rg_tensor[4]
For more information see https://docs.lammps.org/err0013 (src/input.cpp:665)
ERROR on proc 282: Substitution for illegal variable c_rg_tensor[4]
For more information see https://docs.lammps.org/err0013 (src/input.cpp:665)
ERROR on proc 229: Substitution for illegal variable c_rg_tensor[4]
For more information see https://docs.lammps.org/err0013 (src/input.cpp:665)
ERROR on proc 276: Substitution for illegal variable c_rg_tensor[4]
For more information see https://docs.lammps.org/err0013 (src/input.cpp:665)
ERROR on proc 184: Substitution for illegal variable c_rg_tensor[4]
For more information see https://docs.lammps.org/err0013 (src/input.cpp:665)
ERROR on proc 248: Substitution for illegal variable c_rg_tensor[4]
For more information see https://docs.lammps.org/err0013 (src/input.cpp:665)
ERROR on proc 235: Substitution for illegal variable c_rg_tensor[4]
For more information see https://docs.lammps.org/err0013 (src/input.cpp:665)
ERROR on proc 329: Substitution for illegal variable c_rg_tensor[4]
For more information see https://docs.lammps.org/err0013 (src/input.cpp:665)
ERROR on proc 196: Substitution for illegal variable c_rg_tensor[4]
For more information see https://docs.lammps.org/err0013 (src/input.cpp:665)
ERROR on proc 321: Substitution for illegal variable c_rg_tensor[4]
For more information see https://docs.lammps.org/err0013 (src/input.cpp:665)
ERROR on proc 215: Substitution for illegal variable c_rg_tensor[4]
For more information see https://docs.lammps.org/err0013 (src/input.cpp:665)
ERROR on proc 254: Substitution for illegal variable c_rg_tensor[4]
For more information see https://docs.lammps.org/err0013 (src/input.cpp:665)
ERROR on proc 237: Substitution for illegal variable c_rg_tensor[4]
For more information see https://docs.lammps.org/err0013 (src/input.cpp:665)
ERROR on proc 345: Substitution for illegal variable c_rg_tensor[4]
For more information see https://docs.lammps.org/err0013 (src/input.cpp:665)
ERROR on proc 186: Substitution for illegal variable c_rg_tensor[4]
For more information see https://docs.lammps.org/err0013 (src/input.cpp:665)
ERROR on proc 280: Substitution for illegal variable c_rg_tensor[4]
For more information see https://docs.lammps.org/err0013 (src/input.cpp:665)
ERROR on proc 199: Substitution for illegal variable c_rg_tensor[4]
For more information see https://docs.lammps.org/err0013 (src/input.cpp:665)
ERROR on proc 260: Substitution for illegal variable c_rg_tensor[4]
For more information see https://docs.lammps.org/err0013 (src/input.cpp:665)
ERROR on proc 205: Substitution for illegal variable c_rg_tensor[4]
For more information see https://docs.lammps.org/err0013 (src/input.cpp:665)
ERROR on proc 318: Substitution for illegal variable c_rg_tensor[4]
For more information see https://docs.lammps.org/err0013 (src/input.cpp:665)
ERROR on proc 198: Substitution for illegal variable c_rg_tensor[4]
For more information see https://docs.lammps.org/err0013 (src/input.cpp:665)
ERROR on proc 265: Substitution for illegal variable c_rg_tensor[4]
For more information see https://docs.lammps.org/err0013 (src/input.cpp:665)
ERROR on proc 210: Substitution for illegal variable c_rg_tensor[4]
For more information see https://docs.lammps.org/err0013 (src/input.cpp:665)
ERROR on proc 336: Substitution for illegal variable c_rg_tensor[4]
For more information see https://docs.lammps.org/err0013 (src/input.cpp:665)
ERROR on proc 226: Substitution for illegal variable c_rg_tensor[4]
For more information see https://docs.lammps.org/err0013 (src/input.cpp:665)
ERROR on proc 358: Substitution for illegal variable c_rg_tensor[4]
For more information see https://docs.lammps.org/err0013 (src/input.cpp:665)
ERROR on proc 209: Substitution for illegal variable c_rg_tensor[4]
For more information see https://docs.lammps.org/err0013 (src/input.cpp:665)
ERROR on proc 245: Substitution for illegal variable c_rg_tensor[4]
For more information see https://docs.lammps.org/err0013 (src/input.cpp:665)
ERROR on proc 134: Substitution for illegal variable c_rg_tensor[4]
For more information see https://docs.lammps.org/err0013 (src/input.cpp:665)
ERROR on proc 342: Substitution for illegal variable c_rg_tensor[4]
For more information see https://docs.lammps.org/err0013 (src/input.cpp:665)
ERROR on proc 155: Substitution for illegal variable c_rg_tensor[4]
For more information see https://docs.lammps.org/err0013 (src/input.cpp:665)
ERROR on proc 267: Substitution for illegal variable c_rg_tensor[4]
For more information see https://docs.lammps.org/err0013 (src/input.cpp:665)
ERROR on proc 220: Substitution for illegal variable c_rg_tensor[4]
For more information see https://docs.lammps.org/err0013 (src/input.cpp:665)
ERROR on proc 299: Substitution for illegal variable c_rg_tensor[4]
For more information see https://docs.lammps.org/err0013 (src/input.cpp:665)
ERROR on proc 141: Substitution for illegal variable c_rg_tensor[4]
For more information see https://docs.lammps.org/err0013 (src/input.cpp:665)
ERROR on proc 274: Substitution for illegal variable c_rg_tensor[4]
For more information see https://docs.lammps.org/err0013 (src/input.cpp:665)
ERROR on proc 145: Substitution for illegal variable c_rg_tensor[4]
For more information see https://docs.lammps.org/err0013 (src/input.cpp:665)
ERROR on proc 294: Substitution for illegal variable c_rg_tensor[4]
For more information see https://docs.lammps.org/err0013 (src/input.cpp:665)
ERROR on proc 181: Substitution for illegal variable c_rg_tensor[4]
For more information see https://docs.lammps.org/err0013 (src/input.cpp:665)
ERROR on proc 277: Substitution for illegal variable c_rg_tensor[4]
For more information see https://docs.lammps.org/err0013 (src/input.cpp:665)
ERROR on proc 137: Substitution for illegal variable c_rg_tensor[4]
For more information see https://docs.lammps.org/err0013 (src/input.cpp:665)
ERROR on proc 339: Substitution for illegal variable c_rg_tensor[4]
For more information see https://docs.lammps.org/err0013 (src/input.cpp:665)
ERROR on proc 138: Substitution for illegal variable c_rg_tensor[4]
For more information see https://docs.lammps.org/err0013 (src/input.cpp:665)
ERROR on proc 320: Substitution for illegal variable c_rg_tensor[4]
For more information see https://docs.lammps.org/err0013 (src/input.cpp:665)
ERROR on proc 176: Substitution for illegal variable c_rg_tensor[4]
For more information see https://docs.lammps.org/err0013 (src/input.cpp:665)
ERROR on proc 270: Substitution for illegal variable c_rg_tensor[4]
For more information see https://docs.lammps.org/err0013 (src/input.cpp:665)
ERROR on proc 177: Substitution for illegal variable c_rg_tensor[4]
For more information see https://docs.lammps.org/err0013 (src/input.cpp:665)
ERROR on proc 326: Substitution for illegal variable c_rg_tensor[4]
For more information see https://docs.lammps.org/err0013 (src/input.cpp:665)
ERROR on proc 207: Substitution for illegal variable c_rg_tensor[4]
For more information see https://docs.lammps.org/err0013 (src/input.cpp:665)
ERROR on proc 241: Substitution for illegal variable c_rg_tensor[4]
For more information see https://docs.lammps.org/err0013 (src/input.cpp:665)
ERROR on proc 161: Substitution for illegal variable c_rg_tensor[4]
For more information see https://docs.lammps.org/err0013 (src/input.cpp:665)
ERROR on proc 253: Substitution for illegal variable c_rg_tensor[4]
For more information see https://docs.lammps.org/err0013 (src/input.cpp:665)
ERROR on proc 232: Substitution for illegal variable c_rg_tensor[4]
For more information see https://docs.lammps.org/err0013 (src/input.cpp:665)
ERROR on proc 347: Substitution for illegal variable c_rg_tensor[4]
For more information see https://docs.lammps.org/err0013 (src/input.cpp:665)
ERROR on proc 153: Substitution for illegal variable c_rg_tensor[4]
For more information see https://docs.lammps.org/err0013 (src/input.cpp:665)
ERROR on proc 308: Substitution for illegal variable c_rg_tensor[4]
For more information see https://docs.lammps.org/err0013 (src/input.cpp:665)
ERROR on proc 128: Substitution for illegal variable c_rg_tensor[4]
For more information see https://docs.lammps.org/err0013 (src/input.cpp:665)
ERROR on proc 330: Substitution for illegal variable c_rg_tensor[4]
For more information see https://docs.lammps.org/err0013 (src/input.cpp:665)
ERROR on proc 133: Substitution for illegal variable c_rg_tensor[4]
For more information see https://docs.lammps.org/err0013 (src/input.cpp:665)
ERROR on proc 334: Substitution for illegal variable c_rg_tensor[4]
For more information see https://docs.lammps.org/err0013 (src/input.cpp:665)
ERROR on proc 194: Substitution for illegal variable c_rg_tensor[4]
For more information see https://docs.lammps.org/err0013 (src/input.cpp:665)
ERROR on proc 290: Substitution for illegal variable c_rg_tensor[4]
For more information see https://docs.lammps.org/err0013 (src/input.cpp:665)
ERROR on proc 135: Substitution for illegal variable c_rg_tensor[4]
For more information see https://docs.lammps.org/err0013 (src/input.cpp:665)
ERROR on proc 303: Substitution for illegal variable c_rg_tensor[4]
For more information see https://docs.lammps.org/err0013 (src/input.cpp:665)
ERROR on proc 179: Substitution for illegal variable c_rg_tensor[4]
For more information see https://docs.lammps.org/err0013 (src/input.cpp:665)
ERROR on proc 357: Substitution for illegal variable c_rg_tensor[4]
For more information see https://docs.lammps.org/err0013 (src/input.cpp:665)
ERROR on proc 130: Substitution for illegal variable c_rg_tensor[4]
For more information see https://docs.lammps.org/err0013 (src/input.cpp:665)
ERROR on proc 272: Substitution for illegal variable c_rg_tensor[4]
For more information see https://docs.lammps.org/err0013 (src/input.cpp:665)
ERROR on proc 202: Substitution for illegal variable c_rg_tensor[4]
For more information see https://docs.lammps.org/err0013 (src/input.cpp:665)
ERROR on proc 313: Substitution for illegal variable c_rg_tensor[4]
For more information see https://docs.lammps.org/err0013 (src/input.cpp:665)
ERROR on proc 120: Substitution for illegal variable c_rg_tensor[4]
For more information see https://docs.lammps.org/err0013 (src/input.cpp:665)
ERROR on proc 346: Substitution for illegal variable c_rg_tensor[4]
For more information see https://docs.lammps.org/err0013 (src/input.cpp:665)
ERROR on proc 189: Substitution for illegal variable c_rg_tensor[4]
For more information see https://docs.lammps.org/err0013 (src/input.cpp:665)
ERROR on proc 359: Substitution for illegal variable c_rg_tensor[4]
For more information see https://docs.lammps.org/err0013 (src/input.cpp:665)
ERROR on proc 188: Substitution for illegal variable c_rg_tensor[4]
For more information see https://docs.lammps.org/err0013 (src/input.cpp:665)
ERROR on proc 348: Substitution for illegal variable c_rg_tensor[4]
For more information see https://docs.lammps.org/err0013 (src/input.cpp:665)
ERROR on proc 147: Substitution for illegal variable c_rg_tensor[4]
For more information see https://docs.lammps.org/err0013 (src/input.cpp:665)
ERROR on proc 319: Substitution for illegal variable c_rg_tensor[4]
For more information see https://docs.lammps.org/err0013 (src/input.cpp:665)
ERROR on proc 139: Substitution for illegal variable c_rg_tensor[4]
For more information see https://docs.lammps.org/err0013 (src/input.cpp:665)
ERROR on proc 247: Substitution for illegal variable c_rg_tensor[4]
For more information see https://docs.lammps.org/err0013 (src/input.cpp:665)
ERROR on proc 457: Substitution for illegal variable c_rg_tensor[4]
For more information see https://docs.lammps.org/err0013 (src/input.cpp:665)
ERROR on proc 132: Substitution for illegal variable c_rg_tensor[4]
For more information see https://docs.lammps.org/err0013 (src/input.cpp:665)
ERROR on proc 317: Substitution for illegal variable c_rg_tensor[4]
For more information see https://docs.lammps.org/err0013 (src/input.cpp:665)
ERROR on proc 460: Substitution for illegal variable c_rg_tensor[4]
For more information see https://docs.lammps.org/err0013 (src/input.cpp:665)
ERROR on proc 183: Substitution for illegal variable c_rg_tensor[4]
For more information see https://docs.lammps.org/err0013 (src/input.cpp:665)
ERROR on proc 292: Substitution for illegal variable c_rg_tensor[4]
For more information see https://docs.lammps.org/err0013 (src/input.cpp:665)
ERROR on proc 469: Substitution for illegal variable c_rg_tensor[4]
For more information see https://docs.lammps.org/err0013 (src/input.cpp:665)
ERROR on proc 149: Substitution for illegal variable c_rg_tensor[4]
For more information see https://docs.lammps.org/err0013 (src/input.cpp:665)
ERROR on proc 246: Substitution for illegal variable c_rg_tensor[4]
For more information see https://docs.lammps.org/err0013 (src/input.cpp:665)
ERROR on proc 468: Substitution for illegal variable c_rg_tensor[4]
For more information see https://docs.lammps.org/err0013 (src/input.cpp:665)
ERROR on proc 144: Substitution for illegal variable c_rg_tensor[4]
For more information see https://docs.lammps.org/err0013 (src/input.cpp:665)
ERROR on proc 350: Substitution for illegal variable c_rg_tensor[4]
For more information see https://docs.lammps.org/err0013 (src/input.cpp:665)
ERROR on proc 422: Substitution for illegal variable c_rg_tensor[4]
For more information see https://docs.lammps.org/err0013 (src/input.cpp:665)
ERROR on proc 166: Substitution for illegal variable c_rg_tensor[4]
For more information see https://docs.lammps.org/err0013 (src/input.cpp:665)
ERROR on proc 298: Substitution for illegal variable c_rg_tensor[4]
For more information see https://docs.lammps.org/err0013 (src/input.cpp:665)
ERROR on proc 361: Substitution for illegal variable c_rg_tensor[4]
For more information see https://docs.lammps.org/err0013 (src/input.cpp:665)
ERROR on proc 142: Substitution for illegal variable c_rg_tensor[4]
For more information see https://docs.lammps.org/err0013 (src/input.cpp:665)
ERROR on proc 311: Substitution for illegal variable c_rg_tensor[4]
For more information see https://docs.lammps.org/err0013 (src/input.cpp:665)
ERROR on proc 362: Substitution for illegal variable c_rg_tensor[4]
For more information see https://docs.lammps.org/err0013 (src/input.cpp:665)
ERROR on proc 150: Substitution for illegal variable c_rg_tensor[4]
For more information see https://docs.lammps.org/err0013 (src/input.cpp:665)
ERROR on proc 340: Substitution for illegal variable c_rg_tensor[4]
For more information see https://docs.lammps.org/err0013 (src/input.cpp:665)
ERROR on proc 365: Substitution for illegal variable c_rg_tensor[4]
For more information see https://docs.lammps.org/err0013 (src/input.cpp:665)
ERROR on proc 174: Substitution for illegal variable c_rg_tensor[4]
For more information see https://docs.lammps.org/err0013 (src/input.cpp:665)
ERROR on proc 337: Substitution for illegal variable c_rg_tensor[4]
For more information see https://docs.lammps.org/err0013 (src/input.cpp:665)
ERROR on proc 390: Substitution for illegal variable c_rg_tensor[4]
For more information see https://docs.lammps.org/err0013 (src/input.cpp:665)
ERROR on proc 335: Substitution for illegal variable c_rg_tensor[4]
For more information see https://docs.lammps.org/err0013 (src/input.cpp:665)
ERROR on proc 425: Substitution for illegal variable c_rg_tensor[4]
For more information see https://docs.lammps.org/err0013 (src/input.cpp:665)
ERROR on proc 351: Substitution for illegal variable c_rg_tensor[4]
For more information see https://docs.lammps.org/err0013 (src/input.cpp:665)
ERROR on proc 452: Substitution for illegal variable c_rg_tensor[4]
For more information see https://docs.lammps.org/err0013 (src/input.cpp:665)
ERROR on proc 309: Substitution for illegal variable c_rg_tensor[4]
For more information see https://docs.lammps.org/err0013 (src/input.cpp:665)
ERROR on proc 396: Substitution for illegal variable c_rg_tensor[4]
For more information see https://docs.lammps.org/err0013 (src/input.cpp:665)
ERROR on proc 297: Substitution for illegal variable c_rg_tensor[4]
For more information see https://docs.lammps.org/err0013 (src/input.cpp:665)
ERROR on proc 381: Substitution for illegal variable c_rg_tensor[4]
For more information see https://docs.lammps.org/err0013 (src/input.cpp:665)
ERROR on proc 259: Substitution for illegal variable c_rg_tensor[4]
For more information see https://docs.lammps.org/err0013 (src/input.cpp:665)
ERROR on proc 458: Substitution for illegal variable c_rg_tensor[4]
For more information see https://docs.lammps.org/err0013 (src/input.cpp:665)
ERROR on proc 269: Substitution for illegal variable c_rg_tensor[4]
For more information see https://docs.lammps.org/err0013 (src/input.cpp:665)
ERROR on proc 461: Substitution for illegal variable c_rg_tensor[4]
For more information see https://docs.lammps.org/err0013 (src/input.cpp:665)
ERROR on proc 353: Substitution for illegal variable c_rg_tensor[4]
For more information see https://docs.lammps.org/err0013 (src/input.cpp:665)
ERROR on proc 443: Substitution for illegal variable c_rg_tensor[4]
For more information see https://docs.lammps.org/err0013 (src/input.cpp:665)
ERROR on proc 263: Substitution for illegal variable c_rg_tensor[4]
For more information see https://docs.lammps.org/err0013 (src/input.cpp:665)
ERROR on proc 463: Substitution for illegal variable c_rg_tensor[4]
For more information see https://docs.lammps.org/err0013 (src/input.cpp:665)
ERROR on proc 287: Substitution for illegal variable c_rg_tensor[4]
For more information see https://docs.lammps.org/err0013 (src/input.cpp:665)
ERROR on proc 437: Substitution for illegal variable c_rg_tensor[4]
For more information see https://docs.lammps.org/err0013 (src/input.cpp:665)
ERROR on proc 284: Substitution for illegal variable c_rg_tensor[4]
For more information see https://docs.lammps.org/err0013 (src/input.cpp:665)
ERROR on proc 398: Substitution for illegal variable c_rg_tensor[4]
For more information see https://docs.lammps.org/err0013 (src/input.cpp:665)
ERROR on proc 418: Substitution for illegal variable c_rg_tensor[4]
For more information see https://docs.lammps.org/err0013 (src/input.cpp:665)
ERROR on proc 380: Substitution for illegal variable c_rg_tensor[4]
For more information see https://docs.lammps.org/err0013 (src/input.cpp:665)
ERROR on proc 459: Substitution for illegal variable c_rg_tensor[4]
For more information see https://docs.lammps.org/err0013 (src/input.cpp:665)
ERROR on proc 387: Substitution for illegal variable c_rg_tensor[4]
For more information see https://docs.lammps.org/err0013 (src/input.cpp:665)
ERROR on proc 428: Substitution for illegal variable c_rg_tensor[4]
For more information see https://docs.lammps.org/err0013 (src/input.cpp:665)
ERROR on proc 426: Substitution for illegal variable c_rg_tensor[4]
For more information see https://docs.lammps.org/err0013 (src/input.cpp:665)
ERROR on proc 366: Substitution for illegal variable c_rg_tensor[4]
For more information see https://docs.lammps.org/err0013 (src/input.cpp:665)
ERROR on proc 421: Substitution for illegal variable c_rg_tensor[4]
For more information see https://docs.lammps.org/err0013 (src/input.cpp:665)
ERROR on proc 439: Substitution for illegal variable c_rg_tensor[4]
For more information see https://docs.lammps.org/err0013 (src/input.cpp:665)
ERROR on proc 447: Substitution for illegal variable c_rg_tensor[4]
For more information see https://docs.lammps.org/err0013 (src/input.cpp:665)
ERROR on proc 440: Substitution for illegal variable c_rg_tensor[4]
For more information see https://docs.lammps.org/err0013 (src/input.cpp:665)
ERROR on proc 386: Substitution for illegal variable c_rg_tensor[4]
For more information see https://docs.lammps.org/err0013 (src/input.cpp:665)
ERROR on proc 360: Substitution for illegal variable c_rg_tensor[4]
For more information see https://docs.lammps.org/err0013 (src/input.cpp:665)
ERROR on proc 397: Substitution for illegal variable c_rg_tensor[4]
For more information see https://docs.lammps.org/err0013 (src/input.cpp:665)
ERROR on proc 405: Substitution for illegal variable c_rg_tensor[4]
For more information see https://docs.lammps.org/err0013 (src/input.cpp:665)
ERROR on proc 415: Substitution for illegal variable c_rg_tensor[4]
For more information see https://docs.lammps.org/err0013 (src/input.cpp:665)
ERROR on proc 446: Substitution for illegal variable c_rg_tensor[4]
For more information see https://docs.lammps.org/err0013 (src/input.cpp:665)
ERROR on proc 376: Substitution for illegal variable c_rg_tensor[4]
For more information see https://docs.lammps.org/err0013 (src/input.cpp:665)
ERROR on proc 474: Substitution for illegal variable c_rg_tensor[4]
For more information see https://docs.lammps.org/err0013 (src/input.cpp:665)
ERROR on proc 403: Substitution for illegal variable c_rg_tensor[4]
For more information see https://docs.lammps.org/err0013 (src/input.cpp:665)
ERROR on proc 473: Substitution for illegal variable c_rg_tensor[4]
For more information see https://docs.lammps.org/err0013 (src/input.cpp:665)
ERROR on proc 470: Substitution for illegal variable c_rg_tensor[4]
For more information see https://docs.lammps.org/err0013 (src/input.cpp:665)
ERROR on proc 454: Substitution for illegal variable c_rg_tensor[4]
For more information see https://docs.lammps.org/err0013 (src/input.cpp:665)
ERROR on proc 385: Substitution for illegal variable c_rg_tensor[4]
For more information see https://docs.lammps.org/err0013 (src/input.cpp:665)
ERROR on proc 383: Substitution for illegal variable c_rg_tensor[4]
For more information see https://docs.lammps.org/err0013 (src/input.cpp:665)
ERROR on proc 434: Substitution for illegal variable c_rg_tensor[4]
For more information see https://docs.lammps.org/err0013 (src/input.cpp:665)
ERROR on proc 478: Substitution for illegal variable c_rg_tensor[4]
For more information see https://docs.lammps.org/err0013 (src/input.cpp:665)
ERROR on proc 394: Substitution for illegal variable c_rg_tensor[4]
For more information see https://docs.lammps.org/err0013 (src/input.cpp:665)
ERROR on proc 423: Substitution for illegal variable c_rg_tensor[4]
For more information see https://docs.lammps.org/err0013 (src/input.cpp:665)
ERROR on proc 442: Substitution for illegal variable c_rg_tensor[4]
For more information see https://docs.lammps.org/err0013 (src/input.cpp:665)
ERROR on proc 399: Substitution for illegal variable c_rg_tensor[4]
For more information see https://docs.lammps.org/err0013 (src/input.cpp:665)
ERROR on proc 382: Substitution for illegal variable c_rg_tensor[4]
For more information see https://docs.lammps.org/err0013 (src/input.cpp:665)
ERROR on proc 370: Substitution for illegal variable c_rg_tensor[4]
For more information see https://docs.lammps.org/err0013 (src/input.cpp:665)
ERROR on proc 402: Substitution for illegal variable c_rg_tensor[4]
For more information see https://docs.lammps.org/err0013 (src/input.cpp:665)
ERROR on proc 404: Substitution for illegal variable c_rg_tensor[4]
For more information see https://docs.lammps.org/err0013 (src/input.cpp:665)
ERROR on proc 430: Substitution for illegal variable c_rg_tensor[4]
For more information see https://docs.lammps.org/err0013 (src/input.cpp:665)
ERROR on proc 435: Substitution for illegal variable c_rg_tensor[4]
For more information see https://docs.lammps.org/err0013 (src/input.cpp:665)
ERROR on proc 472: Substitution for illegal variable c_rg_tensor[4]
For more information see https://docs.lammps.org/err0013 (src/input.cpp:665)
ERROR on proc 475: Substitution for illegal variable c_rg_tensor[4]
For more information see https://docs.lammps.org/err0013 (src/input.cpp:665)
ERROR on proc 436: Substitution for illegal variable c_rg_tensor[4]
For more information see https://docs.lammps.org/err0013 (src/input.cpp:665)
ERROR on proc 432: Substitution for illegal variable c_rg_tensor[4]
For more information see https://docs.lammps.org/err0013 (src/input.cpp:665)
ERROR on proc 429: Substitution for illegal variable c_rg_tensor[4]
For more information see https://docs.lammps.org/err0013 (src/input.cpp:665)
ERROR on proc 456: Substitution for illegal variable c_rg_tensor[4]
For more information see https://docs.lammps.org/err0013 (src/input.cpp:665)
ERROR on proc 433: Substitution for illegal variable c_rg_tensor[4]
For more information see https://docs.lammps.org/err0013 (src/input.cpp:665)
ERROR on proc 465: Substitution for illegal variable c_rg_tensor[4]
For more information see https://docs.lammps.org/err0013 (src/input.cpp:665)
ERROR on proc 477: Substitution for illegal variable c_rg_tensor[4]
For more information see https://docs.lammps.org/err0013 (src/input.cpp:665)
ERROR on proc 444: Substitution for illegal variable c_rg_tensor[4]
For more information see https://docs.lammps.org/err0013 (src/input.cpp:665)
ERROR on proc 451: Substitution for illegal variable c_rg_tensor[4]
For more information see https://docs.lammps.org/err0013 (src/input.cpp:665)
ERROR on proc 448: Substitution for illegal variable c_rg_tensor[4]
For more information see https://docs.lammps.org/err0013 (src/input.cpp:665)
ERROR on proc 431: Substitution for illegal variable c_rg_tensor[4]
For more information see https://docs.lammps.org/err0013 (src/input.cpp:665)
ERROR on proc 424: Substitution for illegal variable c_rg_tensor[4]
For more information see https://docs.lammps.org/err0013 (src/input.cpp:665)
ERROR on proc 471: Substitution for illegal variable c_rg_tensor[4]
For more information see https://docs.lammps.org/err0013 (src/input.cpp:665)
ERROR on proc 449: Substitution for illegal variable c_rg_tensor[4]
For more information see https://docs.lammps.org/err0013 (src/input.cpp:665)
ERROR on proc 450: Substitution for illegal variable c_rg_tensor[4]
For more information see https://docs.lammps.org/err0013 (src/input.cpp:665)
ERROR on proc 462: Substitution for illegal variable c_rg_tensor[4]
For more information see https://docs.lammps.org/err0013 (src/input.cpp:665)
ERROR on proc 412: Substitution for illegal variable c_rg_tensor[4]
For more information see https://docs.lammps.org/err0013 (src/input.cpp:665)
ERROR on proc 363: Substitution for illegal variable c_rg_tensor[4]
For more information see https://docs.lammps.org/err0013 (src/input.cpp:665)
ERROR on proc 419: Substitution for illegal variable c_rg_tensor[4]
For more information see https://docs.lammps.org/err0013 (src/input.cpp:665)
ERROR on proc 372: Substitution for illegal variable c_rg_tensor[4]
For more information see https://docs.lammps.org/err0013 (src/input.cpp:665)
ERROR on proc 407: Substitution for illegal variable c_rg_tensor[4]
For more information see https://docs.lammps.org/err0013 (src/input.cpp:665)
ERROR on proc 420: Substitution for illegal variable c_rg_tensor[4]
For more information see https://docs.lammps.org/err0013 (src/input.cpp:665)
ERROR on proc 379: Substitution for illegal variable c_rg_tensor[4]
For more information see https://docs.lammps.org/err0013 (src/input.cpp:665)
ERROR on proc 393: Substitution for illegal variable c_rg_tensor[4]
For more information see https://docs.lammps.org/err0013 (src/input.cpp:665)
ERROR on proc 392: Substitution for illegal variable c_rg_tensor[4]
For more information see https://docs.lammps.org/err0013 (src/input.cpp:665)
ERROR on proc 374: Substitution for illegal variable c_rg_tensor[4]
For more information see https://docs.lammps.org/err0013 (src/input.cpp:665)
ERROR on proc 364: Substitution for illegal variable c_rg_tensor[4]
For more information see https://docs.lammps.org/err0013 (src/input.cpp:665)
ERROR on proc 411: Substitution for illegal variable c_rg_tensor[4]
For more information see https://docs.lammps.org/err0013 (src/input.cpp:665)
ERROR on proc 367: Substitution for illegal variable c_rg_tensor[4]
For more information see https://docs.lammps.org/err0013 (src/input.cpp:665)
ERROR on proc 375: Substitution for illegal variable c_rg_tensor[4]
For more information see https://docs.lammps.org/err0013 (src/input.cpp:665)
ERROR on proc 369: Substitution for illegal variable c_rg_tensor[4]
For more information see https://docs.lammps.org/err0013 (src/input.cpp:665)
ERROR on proc 410: Substitution for illegal variable c_rg_tensor[4]
For more information see https://docs.lammps.org/err0013 (src/input.cpp:665)
ERROR on proc 373: Substitution for illegal variable c_rg_tensor[4]
For more information see https://docs.lammps.org/err0013 (src/input.cpp:665)
ERROR on proc 413: Substitution for illegal variable c_rg_tensor[4]
For more information see https://docs.lammps.org/err0013 (src/input.cpp:665)
ERROR on proc 391: Substitution for illegal variable c_rg_tensor[4]
For more information see https://docs.lammps.org/err0013 (src/input.cpp:665)
ERROR on proc 408: Substitution for illegal variable c_rg_tensor[4]
For more information see https://docs.lammps.org/err0013 (src/input.cpp:665)
ERROR on proc 388: Substitution for illegal variable c_rg_tensor[4]
For more information see https://docs.lammps.org/err0013 (src/input.cpp:665)
ERROR on proc 389: Substitution for illegal variable c_rg_tensor[4]
For more information see https://docs.lammps.org/err0013 (src/input.cpp:665)
ERROR on proc 414: Substitution for illegal variable c_rg_tensor[4]
For more information see https://docs.lammps.org/err0013 (src/input.cpp:665)
ERROR on proc 384: Substitution for illegal variable c_rg_tensor[4]
For more information see https://docs.lammps.org/err0013 (src/input.cpp:665)
ERROR on proc 400: Substitution for illegal variable c_rg_tensor[4]
For more information see https://docs.lammps.org/err0013 (src/input.cpp:665)
ERROR on proc 455: Substitution for illegal variable c_rg_tensor[4]
For more information see https://docs.lammps.org/err0013 (src/input.cpp:665)
ERROR on proc 401: Substitution for illegal variable c_rg_tensor[4]
For more information see https://docs.lammps.org/err0013 (src/input.cpp:665)
ERROR on proc 438: Substitution for illegal variable c_rg_tensor[4]
For more information see https://docs.lammps.org/err0013 (src/input.cpp:665)
ERROR on proc 395: Substitution for illegal variable c_rg_tensor[4]
For more information see https://docs.lammps.org/err0013 (src/input.cpp:665)
ERROR on proc 378: Substitution for illegal variable c_rg_tensor[4]
For more information see https://docs.lammps.org/err0013 (src/input.cpp:665)
ERROR on proc 479: Substitution for illegal variable c_rg_tensor[4]
For more information see https://docs.lammps.org/err0013 (src/input.cpp:665)
ERROR on proc 377: Substitution for illegal variable c_rg_tensor[4]
For more information see https://docs.lammps.org/err0013 (src/input.cpp:665)
ERROR on proc 441: Substitution for illegal variable c_rg_tensor[4]
For more information see https://docs.lammps.org/err0013 (src/input.cpp:665)
ERROR on proc 416: Substitution for illegal variable c_rg_tensor[4]
For more information see https://docs.lammps.org/err0013 (src/input.cpp:665)
ERROR on proc 476: Substitution for illegal variable c_rg_tensor[4]
For more information see https://docs.lammps.org/err0013 (src/input.cpp:665)
ERROR on proc 453: Substitution for illegal variable c_rg_tensor[4]
For more information see https://docs.lammps.org/err0013 (src/input.cpp:665)
ERROR on proc 417: Substitution for illegal variable c_rg_tensor[4]
For more information see https://docs.lammps.org/err0013 (src/input.cpp:665)
ERROR on proc 445: Substitution for illegal variable c_rg_tensor[4]
For more information see https://docs.lammps.org/err0013 (src/input.cpp:665)
ERROR on proc 466: Substitution for illegal variable c_rg_tensor[4]
For more information see https://docs.lammps.org/err0013 (src/input.cpp:665)
ERROR on proc 409: Substitution for illegal variable c_rg_tensor[4]
For more information see https://docs.lammps.org/err0013 (src/input.cpp:665)
ERROR on proc 464: Substitution for illegal variable c_rg_tensor[4]
For more information see https://docs.lammps.org/err0013 (src/input.cpp:665)
ERROR on proc 406: Substitution for illegal variable c_rg_tensor[4]
For more information see https://docs.lammps.org/err0013 (src/input.cpp:665)
ERROR on proc 467: Substitution for illegal variable c_rg_tensor[4]
For more information see https://docs.lammps.org/err0013 (src/input.cpp:665)
ERROR on proc 371: Substitution for illegal variable c_rg_tensor[4]
For more information see https://docs.lammps.org/err0013 (src/input.cpp:665)
ERROR on proc 427: Substitution for illegal variable c_rg_tensor[4]
For more information see https://docs.lammps.org/err0013 (src/input.cpp:665)
ERROR on proc 368: Substitution for illegal variable c_rg_tensor[4]
For more information see https://docs.lammps.org/err0013 (src/input.cpp:665)
======================================
Running post-processing...
======================================
Generating convergence plot...
Plot saved to ./output_plots/convergence_plots/walled_slab_support_5beads_10x10x5_rho6_extra_padding43_1.5_1.4_10000000_1.5_1.4_50000_convergence.png
Generating stress profiles...
No stress data found for walled_slab_support_5beads_10x10x5_rho6_extra_padding43_1.5_1.4_10000000_1.5_1.4_50000, skipping stress plots
No volume data found for walled_slab_support_5beads_10x10x5_rho6_extra_padding43_1.5_1.4_10000000_1.5_1.4_50000, skipping volume fraction plots
Generating piston plots...
Error: Piston position file not found: ./output_files/piston_data/piston_position_walled_slab_support_5beads_10x10x5_rho6_extra_padding43_1.5_1.4_10000000_1.5_1.4_50000.dat
Generating computational efficiency plot...
Found data file: ./data_files/walled_slab_support_5beads_10x10x5_rho6_extra_padding43_1.5_1.4_10000000.data
Mobile atoms: 1104570
Entry 'walled_slab_support_5beads_10x10x5_rho6_extra_padding43_1.5_1.4_10000000_1.5_1.4_50000' already exists in tracking file, skipping.
Tracking info written to /jet/home/dpollard/Documents/lammps_work/tracking.txt
Saved /jet/home/dpollard/Documents/lammps_work/time_vs_atoms.png
Saved /jet/home/dpollard/Documents/lammps_work/time_vs_timesteps.png
======================================
Done! Results are in: /jet/home/dpollard/Documents/lammps_runs/slab_with_flow_walled_slab_support_5beads_10x10x5_rho6_extra_padding43_1.5_1.4_10000000_1.5_1.4_20260116_121554
======================================
