======================================
Working directory: /jet/home/dpollard/Documents/lammps_runs/slab_with_flow_walled_slab_support_tall_angle_8_1.0_1.0_10000000_1.0_1.0_20260211_201910
Trajectory directory (scratch): /ocean/projects/chm250028p/dpollard/lammps_trajectories/slab_with_flow_walled_slab_support_tall_angle_8_1.0_1.0_10000000_1.0_1.0_20260211_201910
======================================
Running LAMMPS in slab_with_flow with:
  dataname=walled_slab_support_tall_angle_8_1.0_1.0_10000000
  epsSS=1.0, epsSP=1.0
  nsteps=50000, oldsteps=0, totsteps=50000
SLURM tasks per node: 120
SLURM CPUs per task: 1
SLURM_GPUS_ON_NODE: 
GPUs allocated: 
Running CPU-only with 360 tasks
LAMMPS (22 Jul 2025)
  using 1 OpenMP thread(s) per MPI task
using multi-threaded neighbor list subroutines
Reading data file ...
  orthogonal box = (-5.5421158 -5.5421158 -9.5223626) to (71.542116 71.542116 122.92236)
  6 by 6 by 10 MPI processor grid
  reading atoms ...
  1226346 atoms
  scanning bonds ...
  3 = max bonds/atom
  scanning angles ...
  6 = max angles/atom
  orthogonal box = (-5.5421158 -5.5421158 -9.5223626) to (71.542116 71.542116 122.92236)
  6 by 6 by 10 MPI processor grid
  reading bonds ...
  114810 bonds
  reading angles ...
  168629 angles
Finding 1-2 1-3 1-4 neighbors ...
  special bond factors lj:    0        0        0       
  special bond factors coul:  0        0        0       
     4 = max # of 1-2 neighbors
     4 = max # of 1-3 neighbors
     8 = max # of 1-4 neighbors
    12 = max # of special neighbors
  special bonds CPU = 0.136 seconds
  read_data CPU = 8.680 seconds
========================================
Flow simulation: walled_slab_support_tall_angle_8_1.0_1.0_10000000
Interaction: epsSS=1.0, epsSP=1.0
Production steps: 50000
Piston force per bead: -0.001
========================================
101482 atoms in group polymer
193642 atoms in group solvent
63221 atoms in group support
63221 atoms in group piston
804780 atoms in group walls
295124 atoms in group mobile
421566 atoms in group gel_system
Finding 1-2 1-3 1-4 neighbors ...
  special bond factors lj:    0        1        1       
  special bond factors coul:  0        1        1       
     4 = max # of 1-2 neighbors
    12 = max # of special neighbors
  special bonds CPU = 0.063 seconds
  1 rigid bodies with 63221 atoms
  1 rigid bodies with 63221 atoms
  1 rigid bodies with 804780 atoms
========================================
Phase 1: Soft push to resolve solvent-piston overlaps
========================================
Generated 0 of 15 mixed pair_coeff terms from geometric mixing rule
Hybrid pair style last /omp style soft
Last active /omp style is angle_style harmonic
WARNING: More than one fix rigid (src/RIGID/fix_rigid.cpp:712)
WARNING: More than one fix rigid (src/RIGID/fix_rigid.cpp:712)
WARNING: More than one fix rigid (src/RIGID/fix_rigid.cpp:712)
Neighbor list info ...
  update: every = 1 steps, delay = 0 steps, check = yes
  max neighbors/atom: 2000, page size: 100000
  master list distance cutoff = 2.8
  ghost atom cutoff = 5
  binsize = 1.4, bins = 56 56 95
  2 neighbor lists, perpetual/occasional/extra = 2 0 0
  (1) pair lj/cut, perpetual
      attributes: half, newton on, omp, cut 2.8
      pair build: half/bin/newton/omp
      stencil: half/bin/3d
      bin: standard
  (2) pair soft, perpetual, skip from (1)
      attributes: half, newton on, omp
      pair build: skip/omp
      stencil: none
      bin: none
Setting up Verlet run ...
  Unit style    : lj
  Current step  : 0
  Time step     : 0.005
Per MPI rank memory allocation (min/avg/max) = 17.88 | 29.19 | 45.81 Mbytes
   Step          Temp          PotEng         KinEng         TotEng         Press          Volume           Lx             Ly             Lz      
         0   0              4.7895401      0              4.7895401      0.065457533    786983.74      77.084232      77.084232      132.44473    
      1000   1.2184634      4.6937975      0.439848       5.1336455      0.6512272      786983.74      77.084232      77.084232      132.44473    
Loop time of 55.7821 on 360 procs for 1000 steps with 1226346 atoms

Performance: 7744.413 tau/day, 17.927 timesteps/s, 21.985 Matom-step/s
99.3% CPU use with 360 MPI tasks x 1 OpenMP threads

MPI task timing breakdown:
Section |  min time  |  avg time  |  max time  |%varavg| %total
---------------------------------------------------------------
Pair    | 0.023902   | 1.1262     | 3.107      |  89.7 |  2.02
Bond    | 0.0028682  | 0.050075   | 0.21096    |  29.6 |  0.09
Neigh   | 47.375     | 47.968     | 48.441     |   3.8 | 85.99
Comm    | 1.7857     | 3.8694     | 6.0529     |  43.4 |  6.94
Output  | 0.005561   | 0.019441   | 0.030847   |   6.1 |  0.03
Modify  | 1.1112     | 2.2821     | 5.088      |  56.4 |  4.09
Other   |            | 0.4665     |            |       |  0.84

Nlocal:        3406.52 ave       12235 max           0 min
Histogram: 88 102 20 0 64 64 12 0 8 2
Nghost:          17338 ave       39930 max        6219 min
Histogram: 43 48 59 98 44 44 2 20 0 2
Neighs:        73545.7 ave      234540 max           0 min
Histogram: 122 24 24 46 51 24 21 28 16 4

Total # of neighbors = 26476448
Ave neighs/atom = 21.589705
Ave special neighs/atom = 0.18723916
Neighbor list builds = 488
Dangerous builds = 0
Generated 0 of 15 mixed pair_coeff terms from geometric mixing rule
Hybrid pair style last /omp style soft
Last active /omp style is angle_style harmonic
WARNING: More than one fix rigid (src/RIGID/fix_rigid.cpp:712)
WARNING: More than one fix rigid (src/RIGID/fix_rigid.cpp:712)
WARNING: More than one fix rigid (src/RIGID/fix_rigid.cpp:712)
Setting up cg style minimization ...
  Unit style    : lj
  Current step  : 1000
Per MPI rank memory allocation (min/avg/max) = 19.56 | 32.83 | 51.1 Mbytes
   Step          Temp          PotEng         KinEng         TotEng         Press          Volume           Lx             Ly             Lz      
      1000   1.2184634      4.6937975      0.439848       5.1336455      0.6512272      786983.74      77.084232      77.084232      132.44473    
      1080   1.2184634      4.4084175      0.439848       4.8482655     -1.2551412      786983.74      77.084232      77.084232      132.44473    
Loop time of 1.09765 on 360 procs for 80 steps with 1226346 atoms

98.8% CPU use with 360 MPI tasks x 1 OpenMP threads

Minimization stats:
  Stopping criterion = energy tolerance
  Energy initial, next-to-last, final = 
      4.69379749800277   4.40883283749027   4.40841748280143
  Force two-norm initial, final = 30414.765 1186.1127
  Force max component initial, final = 1147.2168 167.68748
  Final line search alpha, max atom move = 0.00020580549 0.034511003
  Iterations, force evaluations = 80 82

MPI task timing breakdown:
Section |  min time  |  avg time  |  max time  |%varavg| %total
---------------------------------------------------------------
Pair    | 0.00022368 | 0.077442   | 0.20387    |  26.0 |  7.06
Bond    | 0.00018912 | 0.0033092  | 0.013781   |   7.9 |  0.30
Neigh   | 0.62935    | 0.63702    | 0.64367    |   0.4 | 58.04
Comm    | 0.06998    | 0.22435    | 0.36044    |  16.2 | 20.44
Output  | 0          | 0          | 0          |   0.0 |  0.00
Modify  | 0.00047052 | 0.0042849  | 0.013727   |   4.4 |  0.39
Other   |            | 0.1512     |            |       | 13.78

Nlocal:        3406.52 ave       12238 max           0 min
Histogram: 88 102 20 0 64 64 12 0 8 2
Nghost:        17338.2 ave       39908 max        6218 min
Histogram: 43 47 60 98 44 44 2 20 0 2
Neighs:        72407.8 ave      233348 max           0 min
Histogram: 123 25 23 49 48 27 19 29 13 4

Total # of neighbors = 26066793
Ave neighs/atom = 21.255659
Ave special neighs/atom = 0.18723916
Neighbor list builds = 7
Dangerous builds = 0
Soft push complete - overlaps resolved
========================================
Phase 2: Switching to full LJ interactions
========================================
Generated 0 of 15 mixed pair_coeff terms from geometric mixing rule
Last active /omp style is angle_style harmonic
WARNING: More than one fix rigid (src/RIGID/fix_rigid.cpp:712)
WARNING: More than one fix rigid (src/RIGID/fix_rigid.cpp:712)
WARNING: More than one fix rigid (src/RIGID/fix_rigid.cpp:712)
Neighbor list info ...
  update: every = 1 steps, delay = 0 steps, check = yes
  max neighbors/atom: 2000, page size: 100000
  master list distance cutoff = 2.8
  ghost atom cutoff = 5
  binsize = 1.4, bins = 56 56 95
  1 neighbor lists, perpetual/occasional/extra = 1 0 0
  (1) pair lj/cut/omp, perpetual
      attributes: half, newton on, omp
      pair build: half/bin/newton/omp
      stencil: half/bin/3d
      bin: standard
Setting up cg style minimization ...
  Unit style    : lj
  Current step  : 1080
Per MPI rank memory allocation (min/avg/max) = 18.92 | 31.86 | 48 Mbytes
   Step          Temp          PotEng         KinEng         TotEng         Press          Volume           Lx             Ly             Lz      
      1080   1.2184634      4.2935323      0.439848       4.7333803     -1.195329       786983.74      77.084232      77.084232      132.44473    
      1082   1.2184634      4.2916594      0.439848       4.7315074     -1.2934467      786983.74      77.084232      77.084232      132.44473    
Loop time of 0.0787368 on 360 procs for 2 steps with 1226346 atoms

99.3% CPU use with 360 MPI tasks x 1 OpenMP threads

Minimization stats:
  Stopping criterion = energy tolerance
  Energy initial, next-to-last, final = 
      4.29353231398512   4.29199176955567   4.29165940861108
  Force two-norm initial, final = 7788.0617 2078.6881
  Force max component initial, final = 644.30089 143.05435
  Final line search alpha, max atom move = 6.881375e-05 0.0098441061
  Iterations, force evaluations = 2 10

MPI task timing breakdown:
Section |  min time  |  avg time  |  max time  |%varavg| %total
---------------------------------------------------------------
Pair    | 2.9065e-05 | 0.0077662  | 0.02895    |   9.6 |  9.86
Bond    | 2.5149e-05 | 0.00042584 | 0.0018415  |   0.0 |  0.54
Neigh   | 0          | 0          | 0          |   0.0 |  0.00
Comm    | 0.0080274  | 0.026963   | 0.043521   |   5.6 | 34.24
Output  | 0          | 0          | 0          |   0.0 |  0.00
Modify  | 5.5264e-05 | 0.00037716 | 0.0011614  |   0.0 |  0.48
Other   |            | 0.0432     |            |       | 54.87

Nlocal:        3406.52 ave       12238 max           0 min
Histogram: 88 102 20 0 64 64 12 0 8 2
Nghost:        17338.2 ave       39907 max        6218 min
Histogram: 43 47 60 98 44 44 2 20 0 2
Neighs:        33831.2 ave       98948 max           0 min
Histogram: 186 14 2 4 10 22 25 28 34 35

Total # of neighbors = 12179240
Ave neighs/atom = 9.9313244
Ave special neighs/atom = 0.18723916
Neighbor list builds = 0
Dangerous builds = 0
Generated 0 of 15 mixed pair_coeff terms from geometric mixing rule
Last active /omp style is angle_style harmonic
WARNING: More than one fix rigid (src/RIGID/fix_rigid.cpp:712)
WARNING: More than one fix rigid (src/RIGID/fix_rigid.cpp:712)
WARNING: More than one fix rigid (src/RIGID/fix_rigid.cpp:712)
Setting up Verlet run ...
  Unit style    : lj
  Current step  : 1082
  Time step     : 0.005
Per MPI rank memory allocation (min/avg/max) = 17.8 | 29.76 | 44.63 Mbytes
   Step          Temp          PotEng         KinEng         TotEng         Press          Volume           Lx             Ly             Lz      
      1082   1.2184634      4.2916594      0.439848       4.7315074      0.11363379     786983.74      77.084232      77.084232      132.44473    
      6082   0.99631187     4.3147118      0.35965444     4.6743662      0.16277358     786983.74      77.084232      77.084232      132.44473    
Loop time of 261.781 on 360 procs for 5000 steps with 1226346 atoms

Performance: 8251.182 tau/day, 19.100 timesteps/s, 23.423 Matom-step/s
99.3% CPU use with 360 MPI tasks x 1 OpenMP threads

MPI task timing breakdown:
Section |  min time  |  avg time  |  max time  |%varavg| %total
---------------------------------------------------------------
Pair    | 0.0040937  | 2.2426     | 5.9081     | 149.9 |  0.86
Bond    | 0.0094099  | 0.16123    | 0.61872    |  53.6 |  0.06
Neigh   | 231.17     | 234.27     | 236.59     |   9.1 | 89.49
Comm    | 9.9212     | 16.921     | 22.694     |  64.8 |  6.46
Output  | 0.025938   | 0.094342   | 0.1525     |  13.7 |  0.04
Modify  | 3.8317     | 6.6809     | 14.019     |  85.2 |  2.55
Other   |            | 1.41       |            |       |  0.54

Nlocal:        3406.52 ave       12439 max           0 min
Histogram: 88 102 20 0 64 64 12 0 8 2
Nghost:        17350.2 ave       40042 max        6328 min
Histogram: 64 35 55 94 44 43 3 20 0 2
Neighs:        35267.1 ave       93062 max           0 min
Histogram: 122 78 0 0 4 19 27 31 41 38

Total # of neighbors = 12696144
Ave neighs/atom = 10.352824
Ave special neighs/atom = 0.18723916
Neighbor list builds = 2500
Dangerous builds = 0
========================================
Phase 3: Production flow with piston forcing
========================================
  1 rigid bodies with 63221 atoms
WARNING: Temperature for fix modify is not for group all (src/fix_nh.cpp:1402)
Generated 0 of 15 mixed pair_coeff terms from geometric mixing rule
Last active /omp style is angle_style harmonic
WARNING: More than one fix rigid (src/RIGID/fix_rigid.cpp:712)
WARNING: More than one fix rigid (src/RIGID/fix_rigid.cpp:712)
WARNING: More than one fix rigid (src/RIGID/fix_rigid.cpp:712)
Setting up Verlet run ...
  Unit style    : lj
  Current step  : 6082
  Time step     : 0.005
Per MPI rank memory allocation (min/avg/max) = 17.25 | 28.37 | 42.71 Mbytes
   Step          Temp          PotEng         KinEng         TotEng         Press          Volume           Lx             Ly             Lz      
      6082   0.99631187     4.3147118      0.35965444     4.6743662      0.14328102     786983.74      77.084232      77.084232      132.44473    
Loop time of 1.36005e-05 on 360 procs for 0 steps with 1226346 atoms

111.6% CPU use with 360 MPI tasks x 1 OpenMP threads

MPI task timing breakdown:
Section |  min time  |  avg time  |  max time  |%varavg| %total
---------------------------------------------------------------
Pair    | 0          | 0          | 0          |   0.0 |  0.00
Bond    | 0          | 0          | 0          |   0.0 |  0.00
Neigh   | 0          | 0          | 0          |   0.0 |  0.00
Comm    | 0          | 0          | 0          |   0.0 |  0.00
Output  | 0          | 0          | 0          |   0.0 |  0.00
Modify  | 0          | 0          | 0          |   0.0 |  0.00
Other   |            | 1.36e-05   |            |       |100.00

Nlocal:        3406.52 ave       12439 max           0 min
Histogram: 88 102 20 0 64 64 12 0 8 2
Nghost:        17350.2 ave       40042 max        6328 min
Histogram: 64 35 55 94 44 43 3 20 0 2
Neighs:        35267.1 ave       93062 max           0 min
Histogram: 122 78 0 0 4 19 27 31 41 38

Total # of neighbors = 12696144
Ave neighs/atom = 10.352824
Ave special neighs/atom = 0.18723916
Neighbor list builds = 0
Dangerous builds = 0
Rg_xx = 186.524883458315
Rg_yy = 185.794334100952
Rg_zz = 617.610021692352
hw_x = 22.1250063084286
hw_y = 22.0816360447894
hw_z = 40.2598527186751
Generated 0 of 15 mixed pair_coeff terms from geometric mixing rule
Last active /omp style is angle_style harmonic
WARNING: More than one fix rigid (src/RIGID/fix_rigid.cpp:712)
WARNING: More than one fix rigid (src/RIGID/fix_rigid.cpp:712)
WARNING: More than one fix rigid (src/RIGID/fix_rigid.cpp:712)
Setting up Verlet run ...
  Unit style    : lj
  Current step  : 6082
  Time step     : 0.005
Per MPI rank memory allocation (min/avg/max) = 22.51 | 38.27 | 58.48 Mbytes
   Step          Temp          PotEng         KinEng         TotEng         Press          Volume           Lx             Ly             Lz      
      6082   0.99631187     4.3147118      0.35965444     4.6743662      0.14328102     786983.74      77.084232      77.084232      132.44473    
     10000   0.98929652     4.2961752      0.357122       4.6532972      0.12939275     786983.74      77.084232      77.084232      132.44473    
WARNING: Lost atoms: original 1226346 current 1226343
For more information see https://docs.lammps.org/err0008 (src/thermo.cpp:532)
     20000   0.075533091    4.0135188      0.02726644     4.0407852     -0.41807568     786983.74      77.084232      77.084232      132.44473    
ERROR on proc 202: Bond atoms 108014 107986 missing on proc 202 at step 29531
For more information see https://docs.lammps.org/err0005 (src/ntopo_bond_all.cpp:59)
ERROR on proc 211: Bond atoms 87086 87115 missing on proc 211 at step 29531
For more information see https://docs.lammps.org/err0005 (src/ntopo_bond_all.cpp:59)
======================================
Running post-processing...
======================================
Generating convergence plot...
Plot saved to ./output_plots/convergence_plots/walled_slab_support_tall_angle_8_1.0_1.0_10000000_1.0_1.0_50000_convergence.png
Generating stress profiles...
No stress data found for walled_slab_support_tall_angle_8_1.0_1.0_10000000_1.0_1.0_50000, skipping stress plots
No volume data found for walled_slab_support_tall_angle_8_1.0_1.0_10000000_1.0_1.0_50000, skipping volume fraction plots
Generating piston plots...
Error: Piston position file not found: ./output_files/piston_data/piston_position_walled_slab_support_tall_angle_8_1.0_1.0_10000000_1.0_1.0_50000.dat
Generating computational efficiency plot...
Found data file: ./data_files/walled_slab_support_tall_angle_8_1.0_1.0_10000000.data
Mobile atoms: 1099904
Tracking info written to /jet/home/dpollard/Documents/lammps_work/tracking.txt
Saved /jet/home/dpollard/Documents/lammps_work/time_vs_atoms.png
Saved /jet/home/dpollard/Documents/lammps_work/time_vs_timesteps.png
======================================
Done! Results are in: /jet/home/dpollard/Documents/lammps_runs/slab_with_flow_walled_slab_support_tall_angle_8_1.0_1.0_10000000_1.0_1.0_20260211_201910
======================================
