======================================
Working directory: /jet/home/dpollard/Documents/lammps_runs/slab_with_flow_walled_slab_support_5beads_tall_3_1.0_1.4_20000000_1.0_1.4_20260130_141704
Trajectory directory (scratch): /ocean/projects/chm250028p/dpollard/lammps_trajectories/slab_with_flow_walled_slab_support_5beads_tall_3_1.0_1.4_20000000_1.0_1.4_20260130_141704
======================================
Running LAMMPS in slab_with_flow with:
  dataname=walled_slab_support_5beads_tall_3_1.0_1.4_20000000
  epsSS=1.0, epsSP=1.4
  nsteps=50000, oldsteps=0, totsteps=50000
SLURM tasks per node: 120
SLURM CPUs per task: 1
SLURM_GPUS_ON_NODE: 
GPUs allocated: 
Running CPU-only with 480 tasks
LAMMPS (22 Jul 2025)
  using 1 OpenMP thread(s) per MPI task
using multi-threaded neighbor list subroutines
Reading data file ...
  orthogonal box = (-5.9305206 -5.9305206 -8.5890298) to (75.530521 75.530521 109.38903)
  6 by 8 by 10 MPI processor grid
  reading atoms ...
  1715566 atoms
  scanning bonds ...
  3 = max bonds/atom
  orthogonal box = (-5.9305206 -5.9305206 -8.5890298) to (75.530521 75.530521 109.38903)
  6 by 8 by 10 MPI processor grid
  reading bonds ...
  146951 bonds
Finding 1-2 1-3 1-4 neighbors ...
  special bond factors lj:    0        0        0       
  special bond factors coul:  0        0        0       
     4 = max # of 1-2 neighbors
     4 = max # of 1-3 neighbors
     8 = max # of 1-4 neighbors
    12 = max # of special neighbors
  special bonds CPU = 0.157 seconds
  read_data CPU = 7.955 seconds
========================================
Flow simulation: walled_slab_support_5beads_tall_3_1.0_1.4_20000000
Interaction: epsSS=1.0, epsSP=1.4
Production steps: 50000
Piston force per bead: -0.01
========================================
129770 atoms in group polymer
412670 atoms in group solvent
69948 atoms in group support
69948 atoms in group piston
1033230 atoms in group walls
542440 atoms in group mobile
682336 atoms in group gel_system
Finding 1-2 1-3 1-4 neighbors ...
  special bond factors lj:    0        1        1       
  special bond factors coul:  0        1        1       
     4 = max # of 1-2 neighbors
    12 = max # of special neighbors
  special bonds CPU = 0.061 seconds
  1 rigid bodies with 69948 atoms
  1 rigid bodies with 69948 atoms
  1 rigid bodies with 1033230 atoms
========================================
Phase 1: Soft push to resolve solvent-piston overlaps
========================================
Generated 0 of 15 mixed pair_coeff terms from geometric mixing rule
Hybrid pair style last /omp style soft
Last active /omp style is bond_style fene/omp
WARNING: More than one fix rigid (src/RIGID/fix_rigid.cpp:712)
WARNING: More than one fix rigid (src/RIGID/fix_rigid.cpp:712)
WARNING: More than one fix rigid (src/RIGID/fix_rigid.cpp:712)
Neighbor list info ...
  update: every = 1 steps, delay = 0 steps, check = yes
  max neighbors/atom: 2000, page size: 100000
  master list distance cutoff = 2.8
  ghost atom cutoff = 5
  binsize = 1.4, bins = 59 59 85
  2 neighbor lists, perpetual/occasional/extra = 2 0 0
  (1) pair lj/cut, perpetual
      attributes: half, newton on, omp, cut 2.8
      pair build: half/bin/newton/omp
      stencil: half/bin/3d
      bin: standard
  (2) pair soft, perpetual, skip from (1)
      attributes: half, newton on, omp
      pair build: skip/omp
      stencil: none
      bin: none
Setting up Verlet run ...
  Unit style    : lj
  Current step  : 0
  Time step     : 0.005
Per MPI rank memory allocation (min/avg/max) = 18.28 | 28.77 | 52.69 Mbytes
   Step          Temp          PotEng         KinEng         TotEng         Press          Volume           Lx             Ly             Lz      
         0   0              0.1671972      0              0.1671972      0.1142735      782890.75      81.461041      81.461041      117.97806    
      1000   1.1089503      0.029278002    0.52595865     0.55523666     2.7969383      782890.75      81.461041      81.461041      117.97806    
Loop time of 46.6659 on 480 procs for 1000 steps with 1715566 atoms

Performance: 9257.289 tau/day, 21.429 timesteps/s, 36.763 Matom-step/s
99.2% CPU use with 480 MPI tasks x 1 OpenMP threads

MPI task timing breakdown:
Section |  min time  |  avg time  |  max time  |%varavg| %total
---------------------------------------------------------------
Pair    | 1.0195     | 1.3931     | 2.3786     |  14.8 |  2.99
Bond    | 0.0013335  | 0.020446   | 0.037276   |   5.5 |  0.04
Neigh   | 36.523     | 38.173     | 39.384     |  12.5 | 81.80
Comm    | 1.3451     | 4.0476     | 6.9004     |  67.7 |  8.67
Output  | 0.0044711  | 0.027174   | 0.046273   |   7.5 |  0.06
Modify  | 1.1704     | 2.6402     | 4.0523     |  42.7 |  5.66
Other   |            | 0.3645     |            |       |  0.78

Nlocal:         3574.1 ave        9044 max        1277 min
Histogram: 192 34 14 49 47 96 22 12 12 2
Nghost:        20222.8 ave       46281 max        6752 min
Histogram: 192 8 40 0 34 126 15 57 0 8
Neighs:        81667.6 ave      156552 max       39420 min
Histogram: 9 91 125 88 70 31 30 14 15 7

Total # of neighbors = 39200443
Ave neighs/atom = 22.84986
Ave special neighs/atom = 0.17131489
Neighbor list builds = 487
Dangerous builds = 0
Generated 0 of 15 mixed pair_coeff terms from geometric mixing rule
Hybrid pair style last /omp style soft
Last active /omp style is bond_style fene/omp
WARNING: More than one fix rigid (src/RIGID/fix_rigid.cpp:712)
WARNING: More than one fix rigid (src/RIGID/fix_rigid.cpp:712)
WARNING: More than one fix rigid (src/RIGID/fix_rigid.cpp:712)
Setting up cg style minimization ...
  Unit style    : lj
  Current step  : 1000
Per MPI rank memory allocation (min/avg/max) = 20.8 | 32.57 | 59.33 Mbytes
   Step          Temp          PotEng         KinEng         TotEng         Press          Volume           Lx             Ly             Lz      
      1000   1.1089503      0.029278002    0.52595865     0.55523666     2.7969383      782890.75      81.461041      81.461041      117.97806    
      1831   1.1089503     -0.55871959     0.52595865    -0.032760931   -0.47664596     782890.75      81.461041      81.461041      117.97806    
Loop time of 21.2288 on 480 procs for 831 steps with 1715566 atoms

99.2% CPU use with 480 MPI tasks x 1 OpenMP threads

Minimization stats:
  Stopping criterion = energy tolerance
  Energy initial, next-to-last, final = 
    0.0292780022049603 -0.558667223962977 -0.558719586119308
  Force two-norm initial, final = 30295.481 446.0238
  Force max component initial, final = 2081.9661 113.94258
  Final line search alpha, max atom move = 0.00093603609 0.10665436
  Iterations, force evaluations = 831 883

MPI task timing breakdown:
Section |  min time  |  avg time  |  max time  |%varavg| %total
---------------------------------------------------------------
Pair    | 0.28584    | 0.99227    | 2.1335     |  31.7 |  4.67
Bond    | 0.00072308 | 0.013803   | 0.02276    |   5.3 |  0.07
Neigh   | 14.792     | 15.498     | 16         |   8.3 | 73.00
Comm    | 0.76168    | 2.889      | 5.0078     |  61.7 | 13.61
Output  | 0          | 0          | 0          |   0.0 |  0.00
Modify  | 0.010532   | 0.085461   | 0.29198    |  26.2 |  0.40
Other   |            | 1.75       |            |       |  8.24

Nlocal:         3574.1 ave        9028 max        1334 min
Histogram: 192 30 18 51 62 79 23 11 12 2
Nghost:        20222.5 ave       45840 max        7103 min
Histogram: 192 11 37 0 50 110 17 55 0 8
Neighs:          54707 ave      161091 max        8910 min
Histogram: 52 106 82 111 102 3 4 7 7 6

Total # of neighbors = 26259340
Ave neighs/atom = 15.306517
Ave special neighs/atom = 0.17131489
Neighbor list builds = 215
Dangerous builds = 6
Soft push complete - overlaps resolved
========================================
Phase 2: Switching to full LJ interactions
========================================
Generated 0 of 15 mixed pair_coeff terms from geometric mixing rule
Last active /omp style is bond_style fene/omp
WARNING: More than one fix rigid (src/RIGID/fix_rigid.cpp:712)
WARNING: More than one fix rigid (src/RIGID/fix_rigid.cpp:712)
WARNING: More than one fix rigid (src/RIGID/fix_rigid.cpp:712)
Neighbor list info ...
  update: every = 1 steps, delay = 0 steps, check = yes
  max neighbors/atom: 2000, page size: 100000
  master list distance cutoff = 2.8
  ghost atom cutoff = 5
  binsize = 1.4, bins = 59 59 85
  1 neighbor lists, perpetual/occasional/extra = 1 0 0
  (1) pair lj/cut/omp, perpetual
      attributes: half, newton on, omp
      pair build: half/bin/newton/omp
      stencil: half/bin/3d
      bin: standard
Setting up cg style minimization ...
  Unit style    : lj
  Current step  : 1831
Per MPI rank memory allocation (min/avg/max) = 20.16 | 31.63 | 57.53 Mbytes
   Step          Temp          PotEng         KinEng         TotEng         Press          Volume           Lx             Ly             Lz      
      1831   1.1089503     -0.55978949     0.52595865    -0.033830833   -0.47592175     782890.75      81.461041      81.461041      117.97806    
      1832   1.1089503     -0.55979075     0.52595865    -0.03383209    -0.47698746     782890.75      81.461041      81.461041      117.97806    
Loop time of 0.12745 on 480 procs for 1 steps with 1715566 atoms

99.2% CPU use with 480 MPI tasks x 1 OpenMP threads

Minimization stats:
  Stopping criterion = energy tolerance
  Energy initial, next-to-last, final = 
    -0.559789487968486 -0.559789487968486  -0.55979074511326
  Force two-norm initial, final = 673.26718 314.82676
  Force max component initial, final = 189.46262 30.674626
  Final line search alpha, max atom move = 8.2470095e-06 0.00025297393
  Iterations, force evaluations = 1 12

MPI task timing breakdown:
Section |  min time  |  avg time  |  max time  |%varavg| %total
---------------------------------------------------------------
Pair    | 0.002276   | 0.013119   | 0.027918   |   4.9 | 10.29
Bond    | 1.0268e-05 | 0.00020051 | 0.00050672 |   0.0 |  0.16
Neigh   | 0          | 0          | 0          |   0.0 |  0.00
Comm    | 0.0085442  | 0.029837   | 0.051522   |   6.7 | 23.41
Output  | 0          | 0          | 0          |   0.0 |  0.00
Modify  | 9.9225e-05 | 0.00064154 | 0.0021702  |   0.0 |  0.50
Other   |            | 0.08365    |            |       | 65.64

Nlocal:         3574.1 ave        9028 max        1334 min
Histogram: 192 30 18 51 62 79 23 11 12 2
Nghost:        20222.5 ave       45840 max        7103 min
Histogram: 192 11 37 0 50 110 17 55 0 8
Neighs:        46797.3 ave       76292 max        5121 min
Histogram: 21 44 34 58 59 48 6 18 85 107

Total # of neighbors = 22462706
Ave neighs/atom = 13.093467
Ave special neighs/atom = 0.17131489
Neighbor list builds = 0
Dangerous builds = 0
Generated 0 of 15 mixed pair_coeff terms from geometric mixing rule
Last active /omp style is bond_style fene/omp
WARNING: More than one fix rigid (src/RIGID/fix_rigid.cpp:712)
WARNING: More than one fix rigid (src/RIGID/fix_rigid.cpp:712)
WARNING: More than one fix rigid (src/RIGID/fix_rigid.cpp:712)
Setting up Verlet run ...
  Unit style    : lj
  Current step  : 1832
  Time step     : 0.005
Per MPI rank memory allocation (min/avg/max) = 19.04 | 29.47 | 53.03 Mbytes
   Step          Temp          PotEng         KinEng         TotEng         Press          Volume           Lx             Ly             Lz      
      1832   1.1089503     -0.55979075     0.52595865    -0.03383209    -0.70892084     782890.75      81.461041      81.461041      117.97806    
WARNING: Lost atoms: original 1715566 current 1715564
For more information see https://docs.lammps.org/err0008 (src/thermo.cpp:532)
      6832   0             -0.57689866     0             -0.57689866    -2.3337527      782890.75      81.461041      81.461041      117.97806    
Loop time of 67.6343 on 480 procs for 5000 steps with 1715564 atoms

Performance: 31936.470 tau/day, 73.927 timesteps/s, 126.827 Matom-step/s
99.2% CPU use with 480 MPI tasks x 1 OpenMP threads

MPI task timing breakdown:
Section |  min time  |  avg time  |  max time  |%varavg| %total
---------------------------------------------------------------
Pair    | 0.36351    | 2.7918     | 4.1245     |  63.4 |  4.13
Bond    | 0.0033133  | 0.028749   | 0.05044    |   6.6 |  0.04
Neigh   | 37.601     | 39.498     | 40.819     |  13.9 | 58.40
Comm    | 5.3467     | 14.496     | 24.159     | 133.7 | 21.43
Output  | 0.021283   | 0.13914    | 0.23587    |  16.6 |  0.21
Modify  | 3.9982     | 9.4862     | 16.094     | 115.4 | 14.03
Other   |            | 1.194      |            |       |  1.77

Nlocal:        3574.09 ave        8854 max        1418 min
Histogram: 192 47 1 34 62 94 25 11 12 2
Nghost:        20219.7 ave       45292 max        7034 min
Histogram: 192 8 40 0 13 125 30 64 0 8
Neighs:        45641.4 ave       67732 max        2342 min
Histogram: 18 28 24 26 38 57 38 38 68 145

Total # of neighbors = 21907884
Ave neighs/atom = 12.770077
Ave special neighs/atom = 0.17131509
Neighbor list builds = 571
Dangerous builds = 88
========================================
Phase 3: Production flow with piston forcing
========================================
  1 rigid bodies with 69948 atoms
WARNING: Temperature for fix modify is not for group all (src/fix_nh.cpp:1402)
Generated 0 of 15 mixed pair_coeff terms from geometric mixing rule
Last active /omp style is bond_style fene/omp
WARNING: More than one fix rigid (src/RIGID/fix_rigid.cpp:712)
WARNING: More than one fix rigid (src/RIGID/fix_rigid.cpp:712)
WARNING: More than one fix rigid (src/RIGID/fix_rigid.cpp:712)
Setting up Verlet run ...
  Unit style    : lj
  Current step  : 6832
  Time step     : 0.005
Per MPI rank memory allocation (min/avg/max) = 17.65 | 27.86 | 50.9 Mbytes
   Step          Temp          PotEng         KinEng         TotEng         Press          Volume           Lx             Ly             Lz      
      6832   0             -0.57689866     0             -0.57689866    -2.3083426      782890.75      81.461041      81.461041      117.97806    
Loop time of 1.21569e-05 on 480 procs for 0 steps with 1715564 atoms

111.9% CPU use with 480 MPI tasks x 1 OpenMP threads

MPI task timing breakdown:
Section |  min time  |  avg time  |  max time  |%varavg| %total
---------------------------------------------------------------
Pair    | 0          | 0          | 0          |   0.0 |  0.00
Bond    | 0          | 0          | 0          |   0.0 |  0.00
Neigh   | 0          | 0          | 0          |   0.0 |  0.00
Comm    | 0          | 0          | 0          |   0.0 |  0.00
Output  | 0          | 0          | 0          |   0.0 |  0.00
Modify  | 0          | 0          | 0          |   0.0 |  0.00
Other   |            | 1.216e-05  |            |       |100.00

Nlocal:        3574.09 ave        8854 max        1419 min
Histogram: 192 47 1 32 64 94 25 11 12 2
Nghost:        20219.6 ave       45291 max        7036 min
Histogram: 192 8 40 0 13 125 30 64 0 8
Neighs:        45646.8 ave       67725 max        2356 min
Histogram: 18 28 24 26 38 57 38 38 68 145

Total # of neighbors = 21910484
Ave neighs/atom = 12.771592
Ave special neighs/atom = 0.17131509
Neighbor list builds = 0
Dangerous builds = 0
Rg_xx = 398.136551858389
Rg_yy = 402.829162711727
Rg_zz = 733.046972525087
hw_x = 32.3244422488178
hw_y = 32.5143791978358
hw_z = 43.861241144031
Generated 0 of 15 mixed pair_coeff terms from geometric mixing rule
Last active /omp style is bond_style fene/omp
WARNING: More than one fix rigid (src/RIGID/fix_rigid.cpp:712)
WARNING: More than one fix rigid (src/RIGID/fix_rigid.cpp:712)
WARNING: More than one fix rigid (src/RIGID/fix_rigid.cpp:712)
Setting up Verlet run ...
  Unit style    : lj
  Current step  : 6832
  Time step     : 0.005
Per MPI rank memory allocation (min/avg/max) = 20.66 | 33.62 | 62.91 Mbytes
   Step          Temp          PotEng         KinEng         TotEng         Press          Volume           Lx             Ly             Lz      
      6832   0             -0.57689866     0             -0.57689866    -2.3083426      782890.75      81.461041      81.461041      117.97806    
     10000   0.33352437    -0.53577735     0.15818526    -0.37759209    -0.34453603     782890.75      81.461041      81.461041      117.97806    
     20000   0.99679219    -0.29405        0.47276256     0.17871255     0.19139624     782890.75      81.461041      81.461041      117.97806    
     30000   0.99979442    -0.30152471     0.47418647     0.17266176     0.23626577     782890.75      81.461041      81.461041      117.97806    
     40000   0.99828053    -0.30304461     0.47346845     0.17042384     0.36467626     782890.75      81.461041      81.461041      117.97806    
     50000   0.9983305     -0.30798282     0.47349215     0.16550932     0.092631906    782890.75      81.461041      81.461041      117.97806    
     56832   0.99809506    -0.30837017     0.47338048     0.16501032     0.28890346     782890.75      81.461041      81.461041      117.97806    
Loop time of 1334.03 on 480 procs for 50000 steps with 1715564 atoms

Performance: 16191.520 tau/day, 37.480 timesteps/s, 64.300 Matom-step/s
99.2% CPU use with 480 MPI tasks x 1 OpenMP threads

MPI task timing breakdown:
Section |  min time  |  avg time  |  max time  |%varavg| %total
---------------------------------------------------------------
Pair    | 12.555     | 29.672     | 37.027     | 109.1 |  2.22
Bond    | 0.06513    | 0.41944    | 0.75907    |  22.4 |  0.03
Neigh   | 928.63     | 976.57     | 1009.6     |  71.7 | 73.20
Comm    | 61.152     | 172.83     | 285.29     | 458.1 | 12.96
Output  | 0.043383   | 0.2594     | 0.50055    |  25.5 |  0.02
Modify  | 84.237     | 142.32     | 214.49     | 310.2 | 10.67
Other   |            | 11.96      |            |       |  0.90

Nlocal:        3574.09 ave        9281 max        1247 min
Histogram: 192 34 14 48 48 96 16 18 12 2
Nghost:        20176.9 ave       47269 max        6777 min
Histogram: 192 5 43 0 66 94 19 53 0 8
Neighs:        46312.2 ave       57138 max       20239 min
Histogram: 3 15 12 25 69 48 35 30 75 168

Total # of neighbors = 22229865
Ave neighs/atom = 12.957759
Ave special neighs/atom = 0.17131509
Neighbor list builds = 13446
Dangerous builds = 0
========================================
Flow simulation complete
========================================
System init for write_data ...
Generated 0 of 15 mixed pair_coeff terms from geometric mixing rule
Last active /omp style is bond_style fene/omp
WARNING: More than one fix rigid (src/RIGID/fix_rigid.cpp:712)
WARNING: More than one fix rigid (src/RIGID/fix_rigid.cpp:712)
WARNING: More than one fix rigid (src/RIGID/fix_rigid.cpp:712)
WARNING: Not all mixed pair coeffs generated from mixing. Use write_data with 'pair ij' option to store all pair coeffs. (src/write_data.cpp:364)
Total wall time: 0:24:42
======================================
Running post-processing...
======================================
Generating convergence plot...
Plot saved to ./output_plots/convergence_plots/walled_slab_support_5beads_tall_3_1.0_1.4_20000000_1.0_1.4_50000_convergence.png
Generating stress profiles...
Warning: Could not find data file (tried walled_slab_support_5beads_tall_3.data and walled_slab_support_5beads_tall_3_1.0_1.4_20000000_1.0_1.4_50000.data), using default box dimensions
Stress profile saved to ./output_plots/walled_slab_support_5beads_tall_3_1.0_1.4_20000000_1.0_1.4_50000_stress.png
No volume data found for walled_slab_support_5beads_tall_3_1.0_1.4_20000000_1.0_1.4_50000, skipping volume fraction plots
Generating piston plots...
Read 10 position points, 10 velocity points
Piston plot saved to ./output_plots/walled_slab_support_5beads_tall_3_1.0_1.4_20000000_1.0_1.4_50000_piston.png

=== Piston Summary ===
Initial position: 107.9041
Final position:   104.9692
Total displacement: -2.9350
Generating computational efficiency plot...
Found data file: ./data_files/walled_slab_support_5beads_tall_3_1.0_1.4_20000000.data
Mobile atoms: 1575670
Tracking info written to /jet/home/dpollard/Documents/lammps_work/tracking.txt
Saved /jet/home/dpollard/Documents/lammps_work/time_vs_atoms.png
Saved /jet/home/dpollard/Documents/lammps_work/time_vs_timesteps.png
======================================
Done! Results are in: /jet/home/dpollard/Documents/lammps_runs/slab_with_flow_walled_slab_support_5beads_tall_3_1.0_1.4_20000000_1.0_1.4_20260130_141704
======================================
