======================================
Working directory: /jet/home/dpollard/Documents/lammps_runs/slab_with_flow_walled_slab_support_tall_angle_8_1.0_1.0_10000000_1.0_1.0_20260212_003341
Trajectory directory (scratch): /ocean/projects/chm250028p/dpollard/lammps_trajectories/slab_with_flow_walled_slab_support_tall_angle_8_1.0_1.0_10000000_1.0_1.0_20260212_003341
======================================
Running LAMMPS in slab_with_flow with:
  dataname=walled_slab_support_tall_angle_8_1.0_1.0_10000000
  epsSS=1.0, epsSP=1.0
  nsteps=70000, oldsteps=0, totsteps=70000
SLURM tasks per node: 120
SLURM CPUs per task: 1
SLURM_GPUS_ON_NODE: 
GPUs allocated: 
Running CPU-only with 600 tasks
LAMMPS (22 Jul 2025)
  using 1 OpenMP thread(s) per MPI task
using multi-threaded neighbor list subroutines
Reading data file ...
  orthogonal box = (-5.5421158 -5.5421158 -9.5223626) to (71.542116 71.542116 122.92236)
  5 by 8 by 15 MPI processor grid
  reading atoms ...
  1200288 atoms
  scanning bonds ...
  3 = max bonds/atom
  scanning angles ...
  6 = max angles/atom
  orthogonal box = (-5.5421158 -5.5421158 -9.5223626) to (71.542116 71.542116 122.92236)
  5 by 8 by 15 MPI processor grid
  reading bonds ...
  114810 bonds
  reading angles ...
  168629 angles
Finding 1-2 1-3 1-4 neighbors ...
  special bond factors lj:    0        0        0       
  special bond factors coul:  0        0        0       
     4 = max # of 1-2 neighbors
     4 = max # of 1-3 neighbors
     8 = max # of 1-4 neighbors
    12 = max # of special neighbors
  special bonds CPU = 0.154 seconds
  read_data CPU = 9.035 seconds
========================================
Flow simulation: walled_slab_support_tall_angle_8_1.0_1.0_10000000
Interaction: epsSS=1.0, epsSP=1.0
Production steps: 70000
Piston force per bead: -0.001
========================================
101482 atoms in group polymer
167584 atoms in group solvent
63221 atoms in group support
63221 atoms in group piston
804780 atoms in group walls
269066 atoms in group mobile
395508 atoms in group gel_system
Finding 1-2 1-3 1-4 neighbors ...
  special bond factors lj:    0        1        1       
  special bond factors coul:  0        1        1       
     4 = max # of 1-2 neighbors
    12 = max # of special neighbors
  special bonds CPU = 0.061 seconds
  1 rigid bodies with 63221 atoms
  1 rigid bodies with 63221 atoms
  1 rigid bodies with 804780 atoms
========================================
Phase 1: Soft push to resolve solvent-piston overlaps
========================================
Generated 0 of 15 mixed pair_coeff terms from geometric mixing rule
Hybrid pair style last /omp style soft
Last active /omp style is angle_style harmonic
WARNING: More than one fix rigid (src/RIGID/fix_rigid.cpp:712)
WARNING: More than one fix rigid (src/RIGID/fix_rigid.cpp:712)
WARNING: More than one fix rigid (src/RIGID/fix_rigid.cpp:712)
Neighbor list info ...
  update: every = 1 steps, delay = 0 steps, check = yes
  max neighbors/atom: 2000, page size: 100000
  master list distance cutoff = 2.8
  ghost atom cutoff = 5
  binsize = 1.4, bins = 56 56 95
  2 neighbor lists, perpetual/occasional/extra = 2 0 0
  (1) pair lj/cut, perpetual
      attributes: half, newton on, omp, cut 2.8
      pair build: half/bin/newton/omp
      stencil: half/bin/3d
      bin: standard
  (2) pair soft, perpetual, skip from (1)
      attributes: half, newton on, omp
      pair build: skip/omp
      stencil: none
      bin: none
Setting up Verlet run ...
  Unit style    : lj
  Current step  : 0
  Time step     : 0.005
Per MPI rank memory allocation (min/avg/max) = 17.62 | 23.14 | 42.33 Mbytes
   Step     c_mobile_temp      PotEng         KinEng         TotEng         Press          Volume           Lx             Ly             Lz      
         0   0              5.0010559      0              5.0010559      0.056413568    786983.74      77.084232      77.084232      132.44473    
      1000   0.82085498     4.8367686      0.27601294     5.1127815      0.46111725     786983.74      77.084232      77.084232      132.44473    
Loop time of 12.7511 on 600 procs for 1000 steps with 1200288 atoms

Performance: 33879.337 tau/day, 78.424 timesteps/s, 94.132 Matom-step/s
99.2% CPU use with 600 MPI tasks x 1 OpenMP threads

MPI task timing breakdown:
Section |  min time  |  avg time  |  max time  |%varavg| %total
---------------------------------------------------------------
Pair    | 0.016535   | 0.51139    | 1.2114     |  58.6 |  4.01
Bond    | 0.0025171  | 0.030384   | 0.11862    |  22.3 |  0.24
Neigh   | 7.8612     | 8.0705     | 8.2603     |   3.3 | 63.29
Comm    | 0.54017    | 1.9392     | 3.2551     |  44.9 | 15.21
Output  | 0.0038291  | 0.018755   | 0.031987   |   6.7 |  0.15
Modify  | 0.86234    | 1.8881     | 3.5466     |  52.0 | 14.81
Other   |            | 0.2929     |            |       |  2.30

Nlocal:        2000.48 ave        6050 max           0 min
Histogram: 130 63 113 37 130 13 20 81 1 12
Nghost:        13328.2 ave       28067 max        4593 min
Histogram: 48 81 131 56 92 129 24 16 17 6
Neighs:          25059 ave       71292 max           0 min
Histogram: 200 67 42 29 27 44 51 111 23 6

Total # of neighbors = 15035422
Ave neighs/atom = 12.526512
Ave special neighs/atom = 0.19130409
Neighbor list builds = 160
Dangerous builds = 0
Generated 0 of 15 mixed pair_coeff terms from geometric mixing rule
Hybrid pair style last /omp style soft
Last active /omp style is angle_style harmonic
WARNING: More than one fix rigid (src/RIGID/fix_rigid.cpp:712)
WARNING: More than one fix rigid (src/RIGID/fix_rigid.cpp:712)
WARNING: More than one fix rigid (src/RIGID/fix_rigid.cpp:712)
Setting up cg style minimization ...
  Unit style    : lj
  Current step  : 1000
Per MPI rank memory allocation (min/avg/max) = 19.2 | 26.15 | 47.57 Mbytes
   Step     c_mobile_temp      PotEng         KinEng         TotEng         Press          Volume           Lx             Ly             Lz      
      1000   0.82085498     4.8367686      0.27601294     5.1127815      0.46111725     786983.74      77.084232      77.084232      132.44473    
      1041   0.82085498     4.6517327      0.27601294     4.9277457     -0.63249981     786983.74      77.084232      77.084232      132.44473    
Loop time of 0.317797 on 600 procs for 41 steps with 1200288 atoms

97.8% CPU use with 600 MPI tasks x 1 OpenMP threads

Minimization stats:
  Stopping criterion = energy tolerance
  Energy initial, next-to-last, final = 
      4.83676856011331   4.65217290453856   4.65173271066127
  Force two-norm initial, final = 25756.657 1868.5889
  Force max component initial, final = 275.76969 321.48613
  Final line search alpha, max atom move = 9.3877231e-05 0.030180228
  Iterations, force evaluations = 41 42

MPI task timing breakdown:
Section |  min time  |  avg time  |  max time  |%varavg| %total
---------------------------------------------------------------
Pair    | 0.00013976 | 0.018462   | 0.062047   |  13.6 |  5.81
Bond    | 9.5681e-05 | 0.001073   | 0.0050468  |   4.5 |  0.34
Neigh   | 0.14139    | 0.14542    | 0.14904    |   0.5 | 45.76
Comm    | 0.019593   | 0.072599   | 0.11331    |   9.1 | 22.84
Output  | 0          | 0          | 0          |   0.0 |  0.00
Modify  | 0.0001747  | 0.0010945  | 0.0031452  |   1.8 |  0.34
Other   |            | 0.07915    |            |       | 24.90

Nlocal:        2000.48 ave        6045 max           0 min
Histogram: 130 61 115 37 130 13 20 81 1 12
Nghost:        13328.7 ave       28069 max        4592 min
Histogram: 48 81 131 56 92 129 25 15 17 6
Neighs:        24805.2 ave       69904 max           0 min
Histogram: 201 68 40 28 29 39 49 113 27 6

Total # of neighbors = 14883143
Ave neighs/atom = 12.399643
Ave special neighs/atom = 0.19130409
Neighbor list builds = 3
Dangerous builds = 0
Soft push complete - overlaps resolved
========================================
Phase 2: Switching to full LJ interactions
========================================
Generated 0 of 15 mixed pair_coeff terms from geometric mixing rule
Last active /omp style is angle_style harmonic
WARNING: More than one fix rigid (src/RIGID/fix_rigid.cpp:712)
WARNING: More than one fix rigid (src/RIGID/fix_rigid.cpp:712)
WARNING: More than one fix rigid (src/RIGID/fix_rigid.cpp:712)
Neighbor list info ...
  update: every = 1 steps, delay = 0 steps, check = yes
  max neighbors/atom: 2000, page size: 100000
  master list distance cutoff = 2.8
  ghost atom cutoff = 5
  binsize = 1.4, bins = 56 56 95
  1 neighbor lists, perpetual/occasional/extra = 1 0 0
  (1) pair lj/cut/omp, perpetual
      attributes: half, newton on, omp
      pair build: half/bin/newton/omp
      stencil: half/bin/3d
      bin: standard
Setting up cg style minimization ...
  Unit style    : lj
  Current step  : 1041
Per MPI rank memory allocation (min/avg/max) = 18.57 | 25.6 | 47.43 Mbytes
   Step     c_mobile_temp      PotEng         KinEng         TotEng         Press          Volume           Lx             Ly             Lz      
      1041   0.82085498     4.6444833      0.27601294     4.9204963     -0.63133028     786983.74      77.084232      77.084232      132.44473    
      1042   0.82085498     4.6441664      0.27601294     4.9201793     -0.63688205     786983.74      77.084232      77.084232      132.44473    
Loop time of 0.0357016 on 600 procs for 1 steps with 1200288 atoms

99.4% CPU use with 600 MPI tasks x 1 OpenMP threads

Minimization stats:
  Stopping criterion = energy tolerance
  Energy initial, next-to-last, final = 
      4.64448334084872   4.64448334084872    4.6441663543832
  Force two-norm initial, final = 2477.9725 2651.7802
  Force max component initial, final = 865.0878 1442.2206
  Final line search alpha, max atom move = 0.0001155952 0.16671378
  Iterations, force evaluations = 1 1

MPI task timing breakdown:
Section |  min time  |  avg time  |  max time  |%varavg| %total
---------------------------------------------------------------
Pair    | 1.6109e-05 | 0.00087161 | 0.0031884  |   0.0 |  2.44
Bond    | 4.74e-06   | 5.4504e-05 | 0.00031093 |   0.0 |  0.15
Neigh   | 0          | 0          | 0          |   0.0 |  0.00
Comm    | 0.00073679 | 0.0036404  | 0.0060552  |   2.2 | 10.20
Output  | 0          | 0          | 0          |   0.0 |  0.00
Modify  | 7.324e-06  | 5.9391e-05 | 0.00032041 |   0.0 |  0.17
Other   |            | 0.03108    |            |       | 87.04

Nlocal:        2000.48 ave        6045 max           0 min
Histogram: 130 61 115 37 130 13 20 81 1 12
Nghost:        13328.7 ave       28069 max        4592 min
Histogram: 48 81 131 56 92 129 25 15 17 6
Neighs:        17263.9 ave       59642 max           0 min
Histogram: 317 24 30 35 38 2 21 26 69 38

Total # of neighbors = 10358368
Ave neighs/atom = 8.6299022
Ave special neighs/atom = 0.19130409
Neighbor list builds = 0
Dangerous builds = 0
Generated 0 of 15 mixed pair_coeff terms from geometric mixing rule
Last active /omp style is angle_style harmonic
WARNING: More than one fix rigid (src/RIGID/fix_rigid.cpp:712)
WARNING: More than one fix rigid (src/RIGID/fix_rigid.cpp:712)
WARNING: More than one fix rigid (src/RIGID/fix_rigid.cpp:712)
Setting up Verlet run ...
  Unit style    : lj
  Current step  : 1042
  Time step     : 0.005
Per MPI rank memory allocation (min/avg/max) = 17.44 | 24 | 44.06 Mbytes
   Step     c_mobile_temp      PotEng         KinEng         TotEng         Press          Volume           Lx             Ly             Lz      
      1042   0.82085498     4.6441664      0.27601294     4.9201793     -0.594985       786983.74      77.084232      77.084232      132.44473    
      6042   0.99611047     4.7337469      0.33494269     5.0686896     -0.030824031    786983.74      77.084232      77.084232      132.44473    
Loop time of 53.9268 on 600 procs for 5000 steps with 1200288 atoms

Performance: 40054.331 tau/day, 92.718 timesteps/s, 111.289 Matom-step/s
99.4% CPU use with 600 MPI tasks x 1 OpenMP threads

MPI task timing breakdown:
Section |  min time  |  avg time  |  max time  |%varavg| %total
---------------------------------------------------------------
Pair    | 0.0036197  | 1.0522     | 3.0414     | 105.9 |  1.95
Bond    | 0.008532   | 0.087741   | 0.34426    |  38.2 |  0.16
Neigh   | 37.272     | 38.366     | 39.331     |   7.9 | 71.14
Comm    | 2.6941     | 8.9496     | 12.986     |  77.6 | 16.60
Output  | 0.018361   | 0.095547   | 0.16273    |  15.2 |  0.18
Modify  | 1.8655     | 4.6788     | 10.921     | 114.7 |  8.68
Other   |            | 0.6968     |            |       |  1.29

Nlocal:        2000.48 ave        6120 max           0 min
Histogram: 130 156 20 34 133 14 20 81 0 12
Nghost:        13363.3 ave       28561 max        4623 min
Histogram: 62 67 131 58 127 93 23 16 17 6
Neighs:        17602.3 ave       47628 max           0 min
Histogram: 196 87 52 6 28 45 50 16 28 92

Total # of neighbors = 10561370
Ave neighs/atom = 8.7990299
Ave special neighs/atom = 0.19130409
Neighbor list builds = 794
Dangerous builds = 0
========================================
Phase 3: Production flow with piston forcing
========================================
  1 rigid bodies with 63221 atoms
WARNING: Temperature for fix modify is not for group all (src/fix_nh.cpp:1402)
Generated 0 of 15 mixed pair_coeff terms from geometric mixing rule
Last active /omp style is angle_style harmonic
WARNING: More than one fix rigid (src/RIGID/fix_rigid.cpp:712)
WARNING: More than one fix rigid (src/RIGID/fix_rigid.cpp:712)
WARNING: More than one fix rigid (src/RIGID/fix_rigid.cpp:712)
Setting up Verlet run ...
  Unit style    : lj
  Current step  : 6042
  Time step     : 0.005
Per MPI rank memory allocation (min/avg/max) = 16.99 | 22.92 | 42.2 Mbytes
   Step     c_mobile_temp      PotEng         KinEng         TotEng         Press          Volume           Lx             Ly             Lz      
      6042   0.99611047     4.7337469      0.33494269     5.0686896     -0.026317426    786983.74      77.084232      77.084232      132.44473    
Loop time of 1.67788e-05 on 600 procs for 0 steps with 1200288 atoms

108.3% CPU use with 600 MPI tasks x 1 OpenMP threads

MPI task timing breakdown:
Section |  min time  |  avg time  |  max time  |%varavg| %total
---------------------------------------------------------------
Pair    | 0          | 0          | 0          |   0.0 |  0.00
Bond    | 0          | 0          | 0          |   0.0 |  0.00
Neigh   | 0          | 0          | 0          |   0.0 |  0.00
Comm    | 0          | 0          | 0          |   0.0 |  0.00
Output  | 0          | 0          | 0          |   0.0 |  0.00
Modify  | 0          | 0          | 0          |   0.0 |  0.00
Other   |            | 1.678e-05  |            |       |100.00

Nlocal:        2000.48 ave        6120 max           0 min
Histogram: 130 156 20 34 133 14 20 81 0 12
Nghost:        13363.1 ave       28565 max        4623 min
Histogram: 62 67 131 58 127 93 23 16 17 6
Neighs:        17602.2 ave       47522 max           0 min
Histogram: 196 87 52 6 28 44 51 16 27 93

Total # of neighbors = 10561345
Ave neighs/atom = 8.7990091
Ave special neighs/atom = 0.19130409
Neighbor list builds = 0
Dangerous builds = 0
Rg_xx = 197.410383658636
Rg_yy = 197.221696431272
Rg_zz = 646.244727465
hw_x = 22.7614544982022
hw_y = 22.7505740612019
hw_z = 41.1825771748096
Generated 0 of 15 mixed pair_coeff terms from geometric mixing rule
Last active /omp style is angle_style harmonic
WARNING: More than one fix rigid (src/RIGID/fix_rigid.cpp:712)
WARNING: More than one fix rigid (src/RIGID/fix_rigid.cpp:712)
WARNING: More than one fix rigid (src/RIGID/fix_rigid.cpp:712)
Setting up Verlet run ...
  Unit style    : lj
  Current step  : 6042
  Time step     : 0.005
Per MPI rank memory allocation (min/avg/max) = 22.25 | 30.52 | 57.96 Mbytes
   Step     c_mobile_temp      PotEng         KinEng         TotEng         Press          Volume           Lx             Ly             Lz      
      6042   0.99611047     4.7337469      0.33494269     5.0686896     -0.026317426    786983.74      77.084232      77.084232      132.44473    
     10000   1.0015347      4.7050043      0.33680362     5.0418079     -0.045623955    786983.74      77.084232      77.084232      132.44473    
     20000   1.0012761      4.6939694      0.33670472     5.0306741      0.035221222    786983.74      77.084232      77.084232      132.44473    
     30000   0.99967963     4.6905582      0.33614929     5.0267074      0.20207756     786983.74      77.084232      77.084232      132.44473    
     40000   0.99829385     4.6943625      0.33567883     5.0300414      0.039587307    786983.74      77.084232      77.084232      132.44473    
     50000   0.99996378     4.6925837      0.336239       5.0288227      0.10665654     786983.74      77.084232      77.084232      132.44473    
     60000   1.0032143      4.6929727      0.33733611     5.0303088      0.020615291    786983.74      77.084232      77.084232      132.44473    
     70000   0.99847431     4.6888185      0.33573895     5.0245574     -0.029506274    786983.74      77.084232      77.084232      132.44473    
     76042   1.0016596      4.6916188      0.33680938     5.0284282      0.069003174    786983.74      77.084232      77.084232      132.44473    
Loop time of 781.68 on 600 procs for 70000 steps with 1200288 atoms

Performance: 38685.892 tau/day, 89.551 timesteps/s, 107.487 Matom-step/s
99.3% CPU use with 600 MPI tasks x 1 OpenMP threads

MPI task timing breakdown:
Section |  min time  |  avg time  |  max time  |%varavg| %total
---------------------------------------------------------------
Pair    | 0.08205    | 15.422     | 38.981     | 354.5 |  1.97
Bond    | 0.23322    | 1.9846     | 6.2583     | 118.3 |  0.25
Neigh   | 525.91     | 542.3      | 556.94     |  31.6 | 69.38
Comm    | 37.878     | 125.74     | 186.82     | 291.5 | 16.09
Output  | 0.029132   | 0.34197    | 0.68018    |  42.4 |  0.04
Modify  | 46.149     | 86.398     | 173.45     | 375.8 | 11.05
Other   |            | 9.491      |            |       |  1.21

Nlocal:        2000.48 ave        6219 max           0 min
Histogram: 130 156 20 25 142 14 20 81 0 12
Nghost:        13370.8 ave       28463 max        4650 min
Histogram: 78 40 137 62 127 89 40 12 12 3
Neighs:        17853.7 ave       45309 max           0 min
Histogram: 172 95 62 6 23 35 47 32 20 108

Total # of neighbors = 10712210
Ave neighs/atom = 8.9246997
Ave special neighs/atom = 0.19130409
Neighbor list builds = 11574
Dangerous builds = 0
========================================
Flow simulation complete
========================================
System init for write_data ...
Generated 0 of 15 mixed pair_coeff terms from geometric mixing rule
Last active /omp style is angle_style harmonic
WARNING: More than one fix rigid (src/RIGID/fix_rigid.cpp:712)
WARNING: More than one fix rigid (src/RIGID/fix_rigid.cpp:712)
WARNING: More than one fix rigid (src/RIGID/fix_rigid.cpp:712)
WARNING: Not all mixed pair coeffs generated from mixing. Use write_data with 'pair ij' option to store all pair coeffs. (src/write_data.cpp:364)
Total wall time: 0:14:21
======================================
Running post-processing...
======================================
Generating convergence plot...
Plot saved to ./output_plots/convergence_plots/walled_slab_support_tall_angle_8_1.0_1.0_10000000_1.0_1.0_70000_convergence.png
Generating stress profiles...
Warning: Could not find data file (tried walled_slab_support_tall_angle_8.data and walled_slab_support_tall_angle_8_1.0_1.0_10000000_1.0_1.0_70000.data), using default box dimensions
Stress profile saved to ./output_plots/walled_slab_support_tall_angle_8_1.0_1.0_10000000_1.0_1.0_70000_stress.png
No volume data found for walled_slab_support_tall_angle_8_1.0_1.0_10000000_1.0_1.0_70000, skipping volume fraction plots
Generating piston plots...
Read 14 position points, 14 velocity points
Piston plot saved to ./output_plots/walled_slab_support_tall_angle_8_1.0_1.0_10000000_1.0_1.0_70000_piston.png

=== Piston Summary ===
Initial position: 121.4632
Final position:   116.9111
Total displacement: -4.5521
Steady-state velocity: -8.47e-03 ± 3.19e-03
Generating computational efficiency plot...
Found data file: ./data_files/walled_slab_support_tall_angle_8_1.0_1.0_10000000.data
Mobile atoms: 1073846
Tracking info written to /jet/home/dpollard/Documents/lammps_work/tracking.txt
Saved /jet/home/dpollard/Documents/lammps_work/time_vs_atoms.png
Saved /jet/home/dpollard/Documents/lammps_work/time_vs_timesteps.png
======================================
Done! Results are in: /jet/home/dpollard/Documents/lammps_runs/slab_with_flow_walled_slab_support_tall_angle_8_1.0_1.0_10000000_1.0_1.0_20260212_003341
======================================
