======================================
Working directory: /jet/home/dpollard/Documents/lammps_runs/slab_with_flow_walled_slab_support_5beads_tall_3_1.0_1.4_20000000_1.0_1.4_20260201_124914
Trajectory directory (scratch): /ocean/projects/chm250028p/dpollard/lammps_trajectories/slab_with_flow_walled_slab_support_5beads_tall_3_1.0_1.4_20000000_1.0_1.4_20260201_124914
======================================
Running LAMMPS in slab_with_flow with:
  dataname=walled_slab_support_5beads_tall_3_1.0_1.4_20000000
  epsSS=1.0, epsSP=1.4
  nsteps=40000, oldsteps=0, totsteps=40000
SLURM tasks per node: 120
SLURM CPUs per task: 1
SLURM_GPUS_ON_NODE: 
GPUs allocated: 
Running CPU-only with 600 tasks
LAMMPS (22 Jul 2025)
  using 1 OpenMP thread(s) per MPI task
using multi-threaded neighbor list subroutines
Reading data file ...
  orthogonal box = (-5.9305206 -5.9305206 -8.5890298) to (75.530521 75.530521 109.38903)
  6 by 10 by 10 MPI processor grid
  reading atoms ...
  1715566 atoms
  scanning bonds ...
  3 = max bonds/atom
  orthogonal box = (-5.9305206 -5.9305206 -8.5890298) to (75.530521 75.530521 109.38903)
  6 by 10 by 10 MPI processor grid
  reading bonds ...
  146951 bonds
Finding 1-2 1-3 1-4 neighbors ...
  special bond factors lj:    0        0        0       
  special bond factors coul:  0        0        0       
     4 = max # of 1-2 neighbors
     4 = max # of 1-3 neighbors
     8 = max # of 1-4 neighbors
    12 = max # of special neighbors
  special bonds CPU = 0.252 seconds
  read_data CPU = 5.484 seconds
========================================
Flow simulation: walled_slab_support_5beads_tall_3_1.0_1.4_20000000
Interaction: epsSS=1.0, epsSP=1.4
Production steps: 40000
Piston force per bead: -0.001
========================================
129770 atoms in group polymer
412670 atoms in group solvent
69948 atoms in group support
69948 atoms in group piston
1033230 atoms in group walls
542440 atoms in group mobile
682336 atoms in group gel_system
Finding 1-2 1-3 1-4 neighbors ...
  special bond factors lj:    0        1        1       
  special bond factors coul:  0        1        1       
     4 = max # of 1-2 neighbors
    12 = max # of special neighbors
  special bonds CPU = 0.072 seconds
  1 rigid bodies with 69948 atoms
  1 rigid bodies with 69948 atoms
  1 rigid bodies with 1033230 atoms
========================================
Phase 1: Soft push to resolve solvent-piston overlaps
========================================
Generated 0 of 15 mixed pair_coeff terms from geometric mixing rule
Hybrid pair style last /omp style soft
Last active /omp style is bond_style fene/omp
WARNING: More than one fix rigid (src/RIGID/fix_rigid.cpp:712)
WARNING: More than one fix rigid (src/RIGID/fix_rigid.cpp:712)
WARNING: More than one fix rigid (src/RIGID/fix_rigid.cpp:712)
Neighbor list info ...
  update: every = 1 steps, delay = 0 steps, check = yes
  max neighbors/atom: 2000, page size: 100000
  master list distance cutoff = 2.8
  ghost atom cutoff = 5
  binsize = 1.4, bins = 59 59 85
  2 neighbor lists, perpetual/occasional/extra = 2 0 0
  (1) pair lj/cut, perpetual
      attributes: half, newton on, omp, cut 2.8
      pair build: half/bin/newton/omp
      stencil: half/bin/3d
      bin: standard
  (2) pair soft, perpetual, skip from (1)
      attributes: half, newton on, omp
      pair build: skip/omp
      stencil: none
      bin: none
Setting up Verlet run ...
  Unit style    : lj
  Current step  : 0
  Time step     : 0.005
Per MPI rank memory allocation (min/avg/max) = 18.21 | 27.81 | 51.79 Mbytes
   Step          Temp          PotEng         KinEng         TotEng         Press          Volume           Lx             Ly             Lz      
         0   0              0.1671972      0              0.1671972      0.1142735      782890.75      81.461041      81.461041      117.97806    
      1000   1.1089643      0.029272005    0.52596531     0.55523732     2.7962045      782890.75      81.461041      81.461041      117.97806    
Loop time of 41.2035 on 600 procs for 1000 steps with 1715566 atoms

Performance: 10484.534 tau/day, 24.270 timesteps/s, 41.636 Matom-step/s
99.2% CPU use with 600 MPI tasks x 1 OpenMP threads

MPI task timing breakdown:
Section |  min time  |  avg time  |  max time  |%varavg| %total
---------------------------------------------------------------
Pair    | 0.80943    | 1.1275     | 1.9631     |  14.4 |  2.74
Bond    | 0.0011983  | 0.01709    | 0.032326   |   5.1 |  0.04
Neigh   | 32.159     | 33.508     | 34.688     |  11.5 | 81.32
Comm    | 1.2111     | 3.679      | 6.0946     |  63.3 |  8.93
Output  | 0.0036642  | 0.026732   | 0.046844   |   7.8 |  0.06
Modify  | 1.1488     | 2.4951     | 3.9176     |  39.4 |  6.06
Other   |            | 0.3501     |            |       |  0.85

Nlocal:        2859.28 ave        7903 max         997 min
Histogram: 256 59 5 128 7 65 42 24 12 2
Nghost:        19234.4 ave       43340 max        6190 min
Histogram: 224 12 44 30 113 14 87 53 11 12
Neighs:        65333.6 ave      125525 max       30359 min
Histogram: 16 117 155 102 74 45 36 21 24 10

Total # of neighbors = 39200180
Ave neighs/atom = 22.849707
Ave special neighs/atom = 0.17131489
Neighbor list builds = 487
Dangerous builds = 0
Generated 0 of 15 mixed pair_coeff terms from geometric mixing rule
Hybrid pair style last /omp style soft
Last active /omp style is bond_style fene/omp
WARNING: More than one fix rigid (src/RIGID/fix_rigid.cpp:712)
WARNING: More than one fix rigid (src/RIGID/fix_rigid.cpp:712)
WARNING: More than one fix rigid (src/RIGID/fix_rigid.cpp:712)
Setting up cg style minimization ...
  Unit style    : lj
  Current step  : 1000
Per MPI rank memory allocation (min/avg/max) = 20.75 | 31.96 | 58.4 Mbytes
   Step          Temp          PotEng         KinEng         TotEng         Press          Volume           Lx             Ly             Lz      
      1000   1.1089643      0.029272005    0.52596531     0.55523732     2.7962045      782890.75      81.461041      81.461041      117.97806    
      1855   1.1089643     -0.56200821     0.52596531    -0.036042894   -0.44232997     782890.75      81.461041      81.461041      117.97806    
Loop time of 20.1594 on 600 procs for 855 steps with 1715566 atoms

99.3% CPU use with 600 MPI tasks x 1 OpenMP threads

Minimization stats:
  Stopping criterion = energy tolerance
  Energy initial, next-to-last, final = 
    0.0292720051341017 -0.561952834390138 -0.562008208621709
  Force two-norm initial, final = 30294.948 520.40355
  Force max component initial, final = 2081.965 128.66363
  Final line search alpha, max atom move = 0.00071033556 0.091394352
  Iterations, force evaluations = 855 924

MPI task timing breakdown:
Section |  min time  |  avg time  |  max time  |%varavg| %total
---------------------------------------------------------------
Pair    | 0.18673    | 0.82397    | 1.5926     |  29.4 |  4.09
Bond    | 0.00073279 | 0.011999   | 0.029251   |   5.1 |  0.06
Neigh   | 14.25      | 14.909     | 15.479     |   8.4 | 73.95
Comm    | 0.92397    | 2.7173     | 4.6851     |  60.0 | 13.48
Output  | 0          | 0          | 0          |   0.0 |  0.00
Modify  | 0.010213   | 0.077573   | 0.245      |  24.8 |  0.38
Other   |            | 1.62       |            |       |  8.03

Nlocal:        2859.28 ave        7878 max        1052 min
Histogram: 256 61 3 128 9 63 45 21 12 2
Nghost:        19219.6 ave       42923 max        6783 min
Histogram: 224 37 19 32 111 27 74 52 12 12
Neighs:        43610.5 ave      127456 max        2666 min
Histogram: 59 101 115 71 216 6 6 8 11 7

Total # of neighbors = 26166285
Ave neighs/atom = 15.252275
Ave special neighs/atom = 0.17131489
Neighbor list builds = 234
Dangerous builds = 2
Soft push complete - overlaps resolved
========================================
Phase 2: Switching to full LJ interactions
========================================
Generated 0 of 15 mixed pair_coeff terms from geometric mixing rule
Last active /omp style is bond_style fene/omp
WARNING: More than one fix rigid (src/RIGID/fix_rigid.cpp:712)
WARNING: More than one fix rigid (src/RIGID/fix_rigid.cpp:712)
WARNING: More than one fix rigid (src/RIGID/fix_rigid.cpp:712)
Neighbor list info ...
  update: every = 1 steps, delay = 0 steps, check = yes
  max neighbors/atom: 2000, page size: 100000
  master list distance cutoff = 2.8
  ghost atom cutoff = 5
  binsize = 1.4, bins = 59 59 85
  1 neighbor lists, perpetual/occasional/extra = 1 0 0
  (1) pair lj/cut/omp, perpetual
      attributes: half, newton on, omp
      pair build: half/bin/newton/omp
      stencil: half/bin/3d
      bin: standard
Setting up cg style minimization ...
  Unit style    : lj
  Current step  : 1855
Per MPI rank memory allocation (min/avg/max) = 20.12 | 31.15 | 56.98 Mbytes
   Step          Temp          PotEng         KinEng         TotEng         Press          Volume           Lx             Ly             Lz      
      1855   1.1089643     -0.563075       0.52596531    -0.037109684   -0.44160071     782890.75      81.461041      81.461041      117.97806    
      1856   1.1089643     -0.56308091     0.52596531    -0.037115596   -0.4426605      782890.75      81.461041      81.461041      117.97806    
Loop time of 0.0925434 on 600 procs for 1 steps with 1715566 atoms

99.3% CPU use with 600 MPI tasks x 1 OpenMP threads

Minimization stats:
  Stopping criterion = energy tolerance
  Energy initial, next-to-last, final = 
    -0.563074998001286 -0.563074998001286 -0.563080910468951
  Force two-norm initial, final = 724.54675 329.34228
  Force max component initial, final = 189.48733 54.348973
  Final line search alpha, max atom move = 3.2983736e-05 0.0017926322
  Iterations, force evaluations = 1 10

MPI task timing breakdown:
Section |  min time  |  avg time  |  max time  |%varavg| %total
---------------------------------------------------------------
Pair    | 0.0010448  | 0.0088737  | 0.020473   |   4.3 |  9.59
Bond    | 8.426e-06  | 0.00013874 | 0.00036085 |   0.0 |  0.15
Neigh   | 0          | 0          | 0          |   0.0 |  0.00
Comm    | 0.0076599  | 0.024753   | 0.041901   |   5.9 | 26.75
Output  | 0          | 0          | 0          |   0.0 |  0.00
Modify  | 7.8488e-05 | 0.00046231 | 0.002251   |   0.0 |  0.50
Other   |            | 0.05832    |            |       | 63.01

Nlocal:        2859.28 ave        7879 max        1052 min
Histogram: 256 61 3 128 9 63 45 21 12 2
Nghost:        19219.6 ave       42924 max        6782 min
Histogram: 224 37 19 32 111 27 74 52 12 12
Neighs:        37523.9 ave       61199 max        1343 min
Histogram: 58 16 23 82 59 71 7 23 104 157

Total # of neighbors = 22514366
Ave neighs/atom = 13.123579
Ave special neighs/atom = 0.17131489
Neighbor list builds = 0
Dangerous builds = 0
Generated 0 of 15 mixed pair_coeff terms from geometric mixing rule
Last active /omp style is bond_style fene/omp
WARNING: More than one fix rigid (src/RIGID/fix_rigid.cpp:712)
WARNING: More than one fix rigid (src/RIGID/fix_rigid.cpp:712)
WARNING: More than one fix rigid (src/RIGID/fix_rigid.cpp:712)
Setting up Verlet run ...
  Unit style    : lj
  Current step  : 1856
  Time step     : 0.005
Per MPI rank memory allocation (min/avg/max) = 18.99 | 29.03 | 52.48 Mbytes
   Step          Temp          PotEng         KinEng         TotEng         Press          Volume           Lx             Ly             Lz      
      1856   1.1089643     -0.56308091     0.52596531    -0.037115596   -0.67315101     782890.75      81.461041      81.461041      117.97806    
WARNING: Lost atoms: original 1715566 current 1715565
For more information see https://docs.lammps.org/err0008 (src/thermo.cpp:532)
      6856   0             -0.57841675     0             -0.57841675    -2.3057341      782890.75      81.461041      81.461041      117.97806    
Loop time of 71.1568 on 600 procs for 5000 steps with 1715565 atoms

Performance: 30355.483 tau/day, 70.267 timesteps/s, 120.548 Matom-step/s
99.3% CPU use with 600 MPI tasks x 1 OpenMP threads

MPI task timing breakdown:
Section |  min time  |  avg time  |  max time  |%varavg| %total
---------------------------------------------------------------
Pair    | 0.20329    | 2.2247     | 3.3796     |  58.7 |  3.13
Bond    | 0.0031206  | 0.024077   | 0.040678   |   5.8 |  0.03
Neigh   | 43.581     | 45.664     | 47.531     |  15.3 | 64.17
Comm    | 4.35       | 13.467     | 22.221     | 130.1 | 18.93
Output  | 0.018239   | 0.14278    | 0.26651    |  16.9 |  0.20
Modify  | 3.4122     | 8.5602     | 15.146     | 111.0 | 12.03
Other   |            | 1.074      |            |       |  1.51

Nlocal:        2859.28 ave        7713 max        1121 min
Histogram: 256 64 0 127 14 53 47 22 15 2
Nghost:        19231.3 ave       42381 max        6658 min
Histogram: 224 19 37 8 60 85 85 55 15 12
Neighs:        36534.3 ave       54232 max         250 min
Histogram: 30 25 27 34 41 65 46 52 89 191

Total # of neighbors = 21920566
Ave neighs/atom = 12.777462
Ave special neighs/atom = 0.17131499
Neighbor list builds = 734
Dangerous builds = 314
========================================
Phase 3: Production flow with piston forcing
========================================
  1 rigid bodies with 69948 atoms
WARNING: Temperature for fix modify is not for group all (src/fix_nh.cpp:1402)
Generated 0 of 15 mixed pair_coeff terms from geometric mixing rule
Last active /omp style is bond_style fene/omp
WARNING: More than one fix rigid (src/RIGID/fix_rigid.cpp:712)
WARNING: More than one fix rigid (src/RIGID/fix_rigid.cpp:712)
WARNING: More than one fix rigid (src/RIGID/fix_rigid.cpp:712)
Setting up Verlet run ...
  Unit style    : lj
  Current step  : 6856
  Time step     : 0.005
Per MPI rank memory allocation (min/avg/max) = 17.63 | 27.5 | 50.37 Mbytes
   Step          Temp          PotEng         KinEng         TotEng         Press          Volume           Lx             Ly             Lz      
      6856   0             -0.57841675     0             -0.57841675    -2.2682594      782890.75      81.461041      81.461041      117.97806    
Loop time of 1.32087e-05 on 600 procs for 0 steps with 1715565 atoms

109.5% CPU use with 600 MPI tasks x 1 OpenMP threads

MPI task timing breakdown:
Section |  min time  |  avg time  |  max time  |%varavg| %total
---------------------------------------------------------------
Pair    | 0          | 0          | 0          |   0.0 |  0.00
Bond    | 0          | 0          | 0          |   0.0 |  0.00
Neigh   | 0          | 0          | 0          |   0.0 |  0.00
Comm    | 0          | 0          | 0          |   0.0 |  0.00
Output  | 0          | 0          | 0          |   0.0 |  0.00
Modify  | 0          | 0          | 0          |   0.0 |  0.00
Other   |            | 1.321e-05  |            |       |100.00

Nlocal:        2859.28 ave        7713 max        1120 min
Histogram: 256 64 0 127 14 53 47 22 15 2
Nghost:        19231.2 ave       42383 max        6664 min
Histogram: 224 20 36 8 61 85 84 55 15 12
Neighs:        36536.8 ave       54184 max         248 min
Histogram: 30 24 28 33 42 63 48 52 89 191

Total # of neighbors = 21922096
Ave neighs/atom = 12.778353
Ave special neighs/atom = 0.17131499
Neighbor list builds = 0
Dangerous builds = 0
Rg_xx = 399.54146464649
Rg_yy = 404.574173943089
Rg_zz = 732.285656474942
hw_x = 32.3814239930589
hw_y = 32.5847274362737
hw_z = 43.8384588786244
Generated 0 of 15 mixed pair_coeff terms from geometric mixing rule
Last active /omp style is bond_style fene/omp
WARNING: More than one fix rigid (src/RIGID/fix_rigid.cpp:712)
WARNING: More than one fix rigid (src/RIGID/fix_rigid.cpp:712)
WARNING: More than one fix rigid (src/RIGID/fix_rigid.cpp:712)
Setting up Verlet run ...
  Unit style    : lj
  Current step  : 6856
  Time step     : 0.005
Per MPI rank memory allocation (min/avg/max) = 20.64 | 33.18 | 62.38 Mbytes
   Step          Temp          PotEng         KinEng         TotEng         Press          Volume           Lx             Ly             Lz      
      6856   0             -0.57841675     0             -0.57841675    -2.2682594      782890.75      81.461041      81.461041      117.97806    
     10000   0.33173035    -0.53949646     0.15733458    -0.38216187    -0.30278542     782890.75      81.461041      81.461041      117.97806    
     20000   0.99630809    -0.29001991     0.47253355     0.18251364     0.42311916     782890.75      81.461041      81.461041      117.97806    
     30000   0.99889111    -0.29828851     0.47375863     0.17547013     0.30617552     782890.75      81.461041      81.461041      117.97806    
     40000   0.99856138    -0.30220311     0.47360225     0.17139914     0.48120384     782890.75      81.461041      81.461041      117.97806    
     46856   1.0006518     -0.30354213     0.4745937      0.17105156     0.23878106     782890.75      81.461041      81.461041      117.97806    
Loop time of 1199.44 on 600 procs for 40000 steps with 1715565 atoms

Performance: 14406.676 tau/day, 33.349 timesteps/s, 57.212 Matom-step/s
99.3% CPU use with 600 MPI tasks x 1 OpenMP threads

MPI task timing breakdown:
Section |  min time  |  avg time  |  max time  |%varavg| %total
---------------------------------------------------------------
Pair    | 6.7967     | 18.865     | 23.901     |  93.2 |  1.57
Bond    | 0.04573    | 0.30362    | 0.55971    |  19.0 |  0.03
Neigh   | 910.18     | 949.12     | 984.07     |  63.5 | 79.13
Comm    | 41.618     | 132.15     | 214.47     | 401.7 | 11.02
Output  | 0.044076   | 0.25661    | 0.43877    |  24.2 |  0.02
Modify  | 52.135     | 90.382     | 143.19     | 275.3 |  7.54
Other   |            | 8.363      |            |       |  0.70

Nlocal:        2859.28 ave        8084 max        1016 min
Histogram: 256 64 0 128 8 64 40 26 12 2
Nghost:        19206.5 ave       44178 max        6313 min
Histogram: 224 28 28 32 112 17 83 52 12 12
Neighs:        36997.2 ave       46030 max       14439 min
Histogram: 9 9 25 35 53 72 24 70 95 208

Total # of neighbors = 22198307
Ave neighs/atom = 12.939356
Ave special neighs/atom = 0.17131499
Neighbor list builds = 14095
Dangerous builds = 0
========================================
Flow simulation complete
========================================
System init for write_data ...
Generated 0 of 15 mixed pair_coeff terms from geometric mixing rule
Last active /omp style is bond_style fene/omp
WARNING: More than one fix rigid (src/RIGID/fix_rigid.cpp:712)
WARNING: More than one fix rigid (src/RIGID/fix_rigid.cpp:712)
WARNING: More than one fix rigid (src/RIGID/fix_rigid.cpp:712)
WARNING: Not all mixed pair coeffs generated from mixing. Use write_data with 'pair ij' option to store all pair coeffs. (src/write_data.cpp:364)
Total wall time: 0:22:22
======================================
Running post-processing...
======================================
Generating convergence plot...
Plot saved to ./output_plots/convergence_plots/walled_slab_support_5beads_tall_3_1.0_1.4_20000000_1.0_1.4_40000_convergence.png
Generating stress profiles...
Warning: Could not find data file (tried walled_slab_support_5beads_tall_3.data and walled_slab_support_5beads_tall_3_1.0_1.4_20000000_1.0_1.4_40000.data), using default box dimensions
Stress profile saved to ./output_plots/walled_slab_support_5beads_tall_3_1.0_1.4_20000000_1.0_1.4_40000_stress.png
No volume data found for walled_slab_support_5beads_tall_3_1.0_1.4_20000000_1.0_1.4_40000, skipping volume fraction plots
Generating piston plots...
Read 8 position points, 8 velocity points
Piston plot saved to ./output_plots/walled_slab_support_5beads_tall_3_1.0_1.4_20000000_1.0_1.4_40000_piston.png

=== Piston Summary ===
Initial position: 108.2173
Final position:   107.0348
Total displacement: -1.1825
Generating computational efficiency plot...
Found data file: ./data_files/walled_slab_support_5beads_tall_3_1.0_1.4_20000000.data
Mobile atoms: 1575670
Entry 'walled_slab_support_5beads_tall_3_1.0_1.4_20000000_1.0_1.4_40000' already exists in tracking file, skipping.
Tracking info written to /jet/home/dpollard/Documents/lammps_work/tracking.txt
Saved /jet/home/dpollard/Documents/lammps_work/time_vs_atoms.png
Saved /jet/home/dpollard/Documents/lammps_work/time_vs_timesteps.png
======================================
Done! Results are in: /jet/home/dpollard/Documents/lammps_runs/slab_with_flow_walled_slab_support_5beads_tall_3_1.0_1.4_20000000_1.0_1.4_20260201_124914
======================================
