======================================
Working directory: /jet/home/dpollard/Documents/lammps_runs/slab_with_flow_walled_slab_support_5beads_tall_4_1.0_1.05_15000000_1.0_1.05_20260214_152207
Trajectory directory (scratch): /ocean/projects/chm250028p/dpollard/lammps_trajectories/slab_with_flow_walled_slab_support_5beads_tall_4_1.0_1.05_15000000_1.0_1.05_20260214_152207
======================================
Running LAMMPS in slab_with_flow with:
  dataname=walled_slab_support_5beads_tall_4_1.0_1.05_15000000
  epsSS=1.0, epsSP=1.05
  nsteps=50000, oldsteps=0, totsteps=50000
SLURM tasks per node: 120
SLURM CPUs per task: 1
SLURM_GPUS_ON_NODE: 
GPUs allocated: 
Running CPU-only with 600 tasks
LAMMPS (22 Jul 2025)
  using 1 OpenMP thread(s) per MPI task
using multi-threaded neighbor list subroutines
>>> Stress: nevery=100 nrepeat=50 nfreq=5000
>>> Mode: compression_mode=1  (0=permeation, 1=compression)
Reading data file ...
  orthogonal box = (-5.6347822 -5.6347822 -9.6815804) to (71.634782 71.634782 123.08158)
  5 by 8 by 15 MPI processor grid
  reading atoms ...
  1278442 atoms
  scanning bonds ...
  3 = max bonds/atom
  orthogonal box = (-5.6347822 -5.6347822 -9.6815804) to (71.634782 71.634782 123.08158)
  5 by 8 by 15 MPI processor grid
  reading bonds ...
  114808 bonds
Finding 1-2 1-3 1-4 neighbors ...
  special bond factors lj:    0        0        0       
  special bond factors coul:  0        0        0       
     4 = max # of 1-2 neighbors
     4 = max # of 1-3 neighbors
     8 = max # of 1-4 neighbors
    12 = max # of special neighbors
  special bonds CPU = 0.152 seconds
  read_data CPU = 15.885 seconds
========================================
Flow/Compression simulation: walled_slab_support_5beads_tall_4_1.0_1.05_15000000
Interaction: epsSS=1.0, epsSP=1.05
Production steps: 50000
WARNING: Detected non-ASCII characters in input. Will try to continue by replacing with ASCII equivalents where known. (src/input.cpp:478)
Piston force: -0.005 †’ -0.01 (ramp)
========================================
101482 atoms in group polymer
197612 atoms in group solvent
63221 atoms in group support
63221 atoms in group piston
852906 atoms in group walls
299094 atoms in group mobile
425536 atoms in group gel_system
Finding 1-2 1-3 1-4 neighbors ...
  special bond factors lj:    0        1        1       
  special bond factors coul:  0        1        1       
     4 = max # of 1-2 neighbors
    12 = max # of special neighbors
  special bonds CPU = 0.053 seconds
  1 rigid bodies with 63221 atoms
  1 rigid bodies with 63221 atoms
  1 rigid bodies with 852906 atoms
========================================
Phase 1: Soft push to resolve overlaps
========================================
Generated 0 of 15 mixed pair_coeff terms from geometric mixing rule
Hybrid pair style last /omp style soft
Last active /omp style is bond_style fene/omp
WARNING: More than one fix rigid (src/RIGID/fix_rigid.cpp:712)
WARNING: More than one fix rigid (src/RIGID/fix_rigid.cpp:712)
WARNING: More than one fix rigid (src/RIGID/fix_rigid.cpp:712)
Neighbor list info ...
  update: every = 1 steps, delay = 0 steps, check = yes
  max neighbors/atom: 2000, page size: 100000
  master list distance cutoff = 2.8
  ghost atom cutoff = 5
  binsize = 1.4, bins = 56 56 95
  2 neighbor lists, perpetual/occasional/extra = 2 0 0
  (1) pair lj/cut, perpetual
      attributes: half, newton on, omp, cut 2.8
      pair build: half/bin/newton/omp
      stencil: half/bin/3d
      bin: standard
  (2) pair soft, perpetual, skip from (1)
      attributes: half, newton on, omp
      pair build: skip/omp
      stencil: none
      bin: none
Setting up Verlet run ...
  Unit style    : lj
  Current step  : 0
  Time step     : 0.005
Per MPI rank memory allocation (min/avg/max) = 16.56 | 20.82 | 38.92 Mbytes
   Step     c_mobile_temp      PotEng         KinEng         TotEng         Press          Volume           Lx             Ly             Lz      
         0   0              0.50526228     0              0.50526228     0.083476512    792673.82      77.269564      77.269564      132.76316    
      1000   0.82867149     0.32978848     0.290803       0.62059147     0.60544026     792673.82      77.269564      77.269564      132.76316    
Loop time of 24.383 on 600 procs for 1000 steps with 1278442 atoms

Performance: 17717.255 tau/day, 41.012 timesteps/s, 52.432 Matom-step/s
99.3% CPU use with 600 MPI tasks x 1 OpenMP threads

MPI task timing breakdown:
Section |  min time  |  avg time  |  max time  |%varavg| %total
---------------------------------------------------------------
Pair    | 0.024569   | 0.56181    | 1.4776     |  51.9 |  2.30
Bond    | 0.00099688 | 0.012267   | 0.047728   |  10.9 |  0.05
Neigh   | 18.982     | 19.514     | 19.902     |   4.7 | 80.03
Comm    | 0.8327     | 2.0814     | 3.6312     |  42.3 |  8.54
Output  | 0.0038999  | 0.01977    | 0.03365    |   6.5 |  0.08
Modify  | 0.77016    | 1.5536     | 2.8928     |  50.2 |  6.37
Other   |            | 0.6402     |            |       |  2.63

Nlocal:        2130.74 ave        6212 max           0 min
Histogram: 130 119 57 24 116 27 29 80 6 12
Nghost:        12714.6 ave       28821 max        6042 min
Histogram: 143 106 63 122 82 37 23 16 4 4
Neighs:        27727.4 ave       84527 max           0 min
Histogram: 154 67 78 43 43 106 87 16 4 2

Total # of neighbors = 16636461
Ave neighs/atom = 13.013075
Ave special neighs/atom = 0.17960611
Neighbor list builds = 405
Dangerous builds = 0
Generated 0 of 15 mixed pair_coeff terms from geometric mixing rule
Hybrid pair style last /omp style soft
Last active /omp style is bond_style fene/omp
WARNING: More than one fix rigid (src/RIGID/fix_rigid.cpp:712)
WARNING: More than one fix rigid (src/RIGID/fix_rigid.cpp:712)
WARNING: More than one fix rigid (src/RIGID/fix_rigid.cpp:712)
Setting up cg style minimization ...
  Unit style    : lj
  Current step  : 1000
Per MPI rank memory allocation (min/avg/max) = 18.15 | 23.62 | 44.18 Mbytes
   Step     c_mobile_temp      PotEng         KinEng         TotEng         Press          Volume           Lx             Ly             Lz      
      1000   0.82867149     0.32978848     0.290803       0.62059147     0.60544026     792673.82      77.269564      77.269564      132.76316    
      1990   0.82867149    -0.065386532    0.290803       0.22541646     0.057421013    792673.82      77.269564      77.269564      132.76316    
Loop time of 26.0179 on 600 procs for 990 steps with 1278442 atoms

99.4% CPU use with 600 MPI tasks x 1 OpenMP threads

Minimization stats:
  Stopping criterion = energy tolerance
  Energy initial, next-to-last, final = 
     0.329788475041832 -0.0653810619884997 -0.0653865320141907
  Force two-norm initial, final = 18519.214 97.099458
  Force max component initial, final = 331.87208 13.776828
  Final line search alpha, max atom move = 0.0036357801 0.050089519
  Iterations, force evaluations = 990 1336

MPI task timing breakdown:
Section |  min time  |  avg time  |  max time  |%varavg| %total
---------------------------------------------------------------
Pair    | 0.0032955  | 0.63093    | 2.0532     |  80.0 |  2.42
Bond    | 0.0010187  | 0.012415   | 0.04361    |  13.4 |  0.05
Neigh   | 17.318     | 17.805     | 18.157     |   4.5 | 68.43
Comm    | 0.93511    | 2.745      | 5.7254     |  63.3 | 10.55
Output  | 0          | 0          | 0          |   0.0 |  0.00
Modify  | 0.011      | 0.039827   | 0.13906    |  12.0 |  0.15
Other   |            | 4.785      |            |       | 18.39

Nlocal:        2130.74 ave        6157 max           0 min
Histogram: 130 1 175 24 116 27 30 79 6 12
Nghost:        12673.3 ave       28525 max        6067 min
Histogram: 153 96 63 133 50 56 25 15 5 4
Neighs:        22406.9 ave       73104 max           0 min
Histogram: 309 23 27 41 28 7 6 29 129 1

Total # of neighbors = 13444146
Ave neighs/atom = 10.516039
Ave special neighs/atom = 0.17960611
Neighbor list builds = 363
Dangerous builds = 9
Soft push complete
========================================
Phase 2: Switching to full LJ interactions
========================================
Generated 0 of 15 mixed pair_coeff terms from geometric mixing rule
Last active /omp style is bond_style fene/omp
WARNING: More than one fix rigid (src/RIGID/fix_rigid.cpp:712)
WARNING: More than one fix rigid (src/RIGID/fix_rigid.cpp:712)
WARNING: More than one fix rigid (src/RIGID/fix_rigid.cpp:712)
Neighbor list info ...
  update: every = 1 steps, delay = 0 steps, check = yes
  max neighbors/atom: 2000, page size: 100000
  master list distance cutoff = 2.8
  ghost atom cutoff = 5
  binsize = 1.4, bins = 56 56 95
  1 neighbor lists, perpetual/occasional/extra = 1 0 0
  (1) pair lj/cut/omp, perpetual
      attributes: half, newton on, omp
      pair build: half/bin/newton/omp
      stencil: half/bin/3d
      bin: standard
Setting up cg style minimization ...
  Unit style    : lj
  Current step  : 1990
Per MPI rank memory allocation (min/avg/max) = 17.52 | 23.02 | 43.29 Mbytes
   Step     c_mobile_temp      PotEng         KinEng         TotEng         Press          Volume           Lx             Ly             Lz      
      1990   0.82867149    -0.065495593    0.290803       0.2253074      0.057435223    792673.82      77.269564      77.269564      132.76316    
      1991   0.82867149    -0.065495991    0.290803       0.225307       0.057470631    792673.82      77.269564      77.269564      132.76316    
Loop time of 0.0405737 on 600 procs for 1 steps with 1278442 atoms

99.4% CPU use with 600 MPI tasks x 1 OpenMP threads

Minimization stats:
  Stopping criterion = energy tolerance
  Energy initial, next-to-last, final = 
    -0.0654955930674256 -0.0654955930674256 -0.0654959914290381
  Force two-norm initial, final = 152.85519 133.35479
  Force max component initial, final = 80.431331 37.001397
  Final line search alpha, max atom move = 0.0012432966 0.04600371
  Iterations, force evaluations = 1 2

MPI task timing breakdown:
Section |  min time  |  avg time  |  max time  |%varavg| %total
---------------------------------------------------------------
Pair    | 2.2903e-05 | 0.0014396  | 0.0050068  |   4.1 |  3.55
Bond    | 2.395e-06  | 2.9075e-05 | 0.00028678 |   0.0 |  0.07
Neigh   | 0          | 0          | 0          |   0.0 |  0.00
Comm    | 0.001264   | 0.005248   | 0.0093495  |   3.0 | 12.93
Output  | 0          | 0          | 0          |   0.0 |  0.00
Modify  | 1.4616e-05 | 6.853e-05  | 0.00038081 |   0.0 |  0.17
Other   |            | 0.03379    |            |       | 83.28

Nlocal:        2130.74 ave        6157 max           0 min
Histogram: 130 1 175 24 116 27 30 79 6 12
Nghost:        12673.2 ave       28525 max        6067 min
Histogram: 152 97 63 133 50 56 25 15 5 4
Neighs:        21454.7 ave       64744 max           0 min
Histogram: 307 26 25 40 34 11 1 1 26 129

Total # of neighbors = 12872795
Ave neighs/atom = 10.069127
Ave special neighs/atom = 0.17960611
Neighbor list builds = 0
Dangerous builds = 0
Generated 0 of 15 mixed pair_coeff terms from geometric mixing rule
Last active /omp style is bond_style fene/omp
WARNING: More than one fix rigid (src/RIGID/fix_rigid.cpp:712)
WARNING: More than one fix rigid (src/RIGID/fix_rigid.cpp:712)
WARNING: More than one fix rigid (src/RIGID/fix_rigid.cpp:712)
Setting up Verlet run ...
  Unit style    : lj
  Current step  : 1991
  Time step     : 0.005
Per MPI rank memory allocation (min/avg/max) = 16.39 | 21.49 | 39.92 Mbytes
   Step     c_mobile_temp      PotEng         KinEng         TotEng         Press          Volume           Lx             Ly             Lz      
      1991   0.82867149    -0.065495991    0.290803       0.225307       0.07137953     792673.82      77.269564      77.269564      132.76316    
WARNING: Lost atoms: original 1278442 current 1278441
For more information see https://docs.lammps.org/err0008 (src/thermo.cpp:532)
      6991   9.349584e-05  -0.017398034    3.2810217e-05 -0.017365223   -1.1664137      792673.82      77.269564      77.269564      132.76316    
Loop time of 76.1323 on 600 procs for 5000 steps with 1278441 atoms

Performance: 28371.676 tau/day, 65.675 timesteps/s, 83.962 Matom-step/s
99.4% CPU use with 600 MPI tasks x 1 OpenMP threads

MPI task timing breakdown:
Section |  min time  |  avg time  |  max time  |%varavg| %total
---------------------------------------------------------------
Pair    | 0.0039838  | 1.1672     | 3.345      | 113.4 |  1.53
Bond    | 0.0030584  | 0.017128   | 0.053781   |  13.2 |  0.02
Neigh   | 53.538     | 55.207     | 56.61      |   9.8 | 72.51
Comm    | 3.6538     | 9.0064     | 15.415     |  90.7 | 11.83
Output  | 0.020688   | 0.10146    | 0.1684     |  14.4 |  0.13
Modify  | 5.3505     | 9.4297     | 14.469     |  78.5 | 12.39
Other   |            | 1.203      |            |       |  1.58

Nlocal:        2130.74 ave        6203 max           0 min
Histogram: 130 56 120 16 124 27 29 81 5 12
Nghost:          12702 ave       28860 max        6084 min
Histogram: 152 91 69 133 71 38 22 16 4 4
Neighs:        19873.3 ave       55816 max           0 min
Histogram: 266 58 14 21 37 34 13 5 41 111

Total # of neighbors = 11923975
Ave neighs/atom = 9.3269654
Ave special neighs/atom = 0.17960625
Neighbor list builds = 1094
Dangerous builds = 243
========================================
Phase 3: Production €” piston forcing
========================================
  1 rigid bodies with 63221 atoms
WARNING: Temperature for fix modify is not for group all (src/fix_nh.cpp:1402)
Generated 0 of 15 mixed pair_coeff terms from geometric mixing rule
Last active /omp style is bond_style fene/omp
WARNING: More than one fix rigid (src/RIGID/fix_rigid.cpp:712)
WARNING: More than one fix rigid (src/RIGID/fix_rigid.cpp:712)
WARNING: More than one fix rigid (src/RIGID/fix_rigid.cpp:712)
Setting up Verlet run ...
  Unit style    : lj
  Current step  : 6991
  Time step     : 0.005
Per MPI rank memory allocation (min/avg/max) = 15.93 | 20.26 | 38.05 Mbytes
   Step     c_mobile_temp      PotEng         KinEng         TotEng         Press          Volume           Lx             Ly             Lz      
      6991   9.3496152e-05 -0.017398034    3.2810217e-05 -0.017365223   -1.1664056      792673.82      77.269564      77.269564      132.76316    
Loop time of 1.38456e-05 on 600 procs for 0 steps with 1278441 atoms

107.6% CPU use with 600 MPI tasks x 1 OpenMP threads

MPI task timing breakdown:
Section |  min time  |  avg time  |  max time  |%varavg| %total
---------------------------------------------------------------
Pair    | 0          | 0          | 0          |   0.0 |  0.00
Bond    | 0          | 0          | 0          |   0.0 |  0.00
Neigh   | 0          | 0          | 0          |   0.0 |  0.00
Comm    | 0          | 0          | 0          |   0.0 |  0.00
Output  | 0          | 0          | 0          |   0.0 |  0.00
Modify  | 0          | 0          | 0          |   0.0 |  0.00
Other   |            | 1.385e-05  |            |       |100.00

Nlocal:        2130.74 ave        6202 max           0 min
Histogram: 130 54 122 16 124 27 29 81 5 12
Nghost:        12701.9 ave       28860 max        6080 min
Histogram: 152 90 70 133 71 38 22 16 4 4
Neighs:        19889.1 ave       55963 max           0 min
Histogram: 266 58 14 22 37 33 13 6 43 108

Total # of neighbors = 11933462
Ave neighs/atom = 9.3343862
Ave special neighs/atom = 0.17960625
Neighbor list builds = 0
Dangerous builds = 0
Rg_xx = 206.502829577252  †’  Lx_rg = 49.779854910666699652
Rg_yy = 199.136402598409  †’  Ly_rg = 48.883911782721597206
Rg_zz = 737.847241851192  †’  Lz_rg = 94.096582840262101399
BB:  Lx=54.292722104740498423 Ly=51.050748161735697295 Lz=103.02407792183299762
hw_x = 25.8663713696046
hw_y = 25.4008256641167
hw_z = 48.8940186893843
>>> Initial gel thickness (Rg): L0 = 94.0965828402621
>>> Initial gel thickness (BB): L0 = 103.02407792183299762
>>> Starting Phase 3 production run (nsteps = 50000)
>>> compression_mode = 1
Generated 0 of 15 mixed pair_coeff terms from geometric mixing rule
Last active /omp style is bond_style fene/omp
WARNING: More than one fix rigid (src/RIGID/fix_rigid.cpp:712)
WARNING: More than one fix rigid (src/RIGID/fix_rigid.cpp:712)
WARNING: More than one fix rigid (src/RIGID/fix_rigid.cpp:712)
Setting up Verlet run ...
  Unit style    : lj
  Current step  : 6991
  Time step     : 0.005
Per MPI rank memory allocation (min/avg/max) = 18.95 | 24.38 | 47.07 Mbytes
   Step     c_mobile_temp      PotEng         KinEng         TotEng         Press          Volume           Lx             Ly             Lz      
      6991   9.3496152e-05 -0.017398034    3.2810217e-05 -0.017365223   -1.1664056      792673.82      77.269564      77.269564      132.76316    
>>> gel_strain = 2.3962985277651300819 %
     10000   0.25311785    -0.00081614796  0.088865851    0.088049703    0.050633917    792673.82      77.269564      77.269564      132.76316    
>>> gel_strain = -3.1199920893365500341 %
     20000   1.0024325      0.19785498     0.3518713      0.54972627     0.083659226    792673.82      77.269564      77.269564      132.76316    
>>> gel_strain = -3.9917485482158698851 %
     30000   0.99944738     0.19401921     0.3508566      0.54487581     0.069308214    792673.82      77.269564      77.269564      132.76316    
>>> gel_strain = -3.1298518638339500875 %
     40000   1.000412       0.19097561     0.35123268     0.5422083     -0.0054820813   792673.82      77.269564      77.269564      132.76316    
>>> gel_strain = -3.507793488808809812 %
     50000   0.99972707     0.19563507     0.35103487     0.54666994     0.020187229    792673.82      77.269564      77.269564      132.76316    
     56991   0.99933263     0.19345704     0.35092913     0.54438617    -0.092775231    792673.82      77.269564      77.269564      132.76316    
Loop time of 666.399 on 600 procs for 50000 steps with 1278441 atoms

Performance: 32412.991 tau/day, 75.030 timesteps/s, 95.922 Matom-step/s
99.3% CPU use with 600 MPI tasks x 1 OpenMP threads

MPI task timing breakdown:
Section |  min time  |  avg time  |  max time  |%varavg| %total
---------------------------------------------------------------
Pair    | 2.9254     | 46.111     | 118.3      | 427.4 |  6.92
Bond    | 1.0455     | 8.3023     | 32.825     | 187.6 |  1.25
Neigh   | 338.21     | 349.02     | 357.6      |  25.4 | 52.37
Comm    | 35.473     | 113.24     | 224.7      | 449.7 | 16.99
Output  | 0.021084   | 0.10594    | 0.18611    |  16.8 |  0.02
Modify  | 52.173     | 131.18     | 242.99     | 489.0 | 19.69
Other   |            | 18.43      |            |       |  2.77

Nlocal:        2130.74 ave        6444 max           0 min
Histogram: 130 156 20 18 123 26 29 82 4 12
Nghost:        12740.5 ave       25840 max        5949 min
Histogram: 121 25 156 39 112 69 37 31 4 6
Neighs:        19207.6 ave       41670 max           0 min
Histogram: 150 4 105 70 1 6 38 57 65 104

Total # of neighbors = 11524585
Ave neighs/atom = 9.0145615
Ave special neighs/atom = 0.17960625
Neighbor list builds = 8117
Dangerous builds = 0
>>> 10% compression reached (or nsteps exhausted)
>>> Freezing piston and starting stress relaxation
  1 rigid bodies with 63221 atoms
Generated 0 of 15 mixed pair_coeff terms from geometric mixing rule
Last active /omp style is bond_style fene/omp
WARNING: More than one fix rigid (src/RIGID/fix_rigid.cpp:712)
WARNING: More than one fix rigid (src/RIGID/fix_rigid.cpp:712)
WARNING: More than one fix rigid (src/RIGID/fix_rigid.cpp:712)
Setting up Verlet run ...
  Unit style    : lj
  Current step  : 56991
  Time step     : 0.005
Per MPI rank memory allocation (min/avg/max) = 21.75 | 29.99 | 55.96 Mbytes
   Step     c_mobile_temp      PotEng         KinEng         TotEng         Press          Volume           Lx             Ly             Lz      
     56991   0.99933263     0.19345704     0.35069166     0.5441487     -0.10517005     792673.82      77.269564      77.269564      132.76316    
>>> gel_strain = -3.0795971645691699869 %
     60000   0.99890652     0.19505281     0.35054212     0.54559493     0.20606276     792673.82      77.269564      77.269564      132.76316    
>>> gel_strain = -3.184823857454500029 %
     70000   0.99773197     0.19461317     0.35012994     0.54474312     0.077484646    792673.82      77.269564      77.269564      132.76316    
>>> gel_strain = -3.0953891988504000921 %
     80000   0.99872867     0.19723423     0.35047971     0.54771394     0.1944679      792673.82      77.269564      77.269564      132.76316    
>>> gel_strain = -3.0192587170996398882 %
     90000   1.0004995      0.19321726     0.35110116     0.54431841    -0.072190979    792673.82      77.269564      77.269564      132.76316    
>>> gel_strain = -2.9522221055307800164 %
    100000   1.0006978      0.19325399     0.35117071     0.5444247      0.030387825    792673.82      77.269564      77.269564      132.76316    
    106991   1.002851       0.19201476     0.35192633     0.54394109     0.072185835    792673.82      77.269564      77.269564      132.76316    
Loop time of 502.027 on 600 procs for 50000 steps with 1278441 atoms

Performance: 43025.543 tau/day, 99.596 timesteps/s, 127.328 Matom-step/s
99.3% CPU use with 600 MPI tasks x 1 OpenMP threads

MPI task timing breakdown:
Section |  min time  |  avg time  |  max time  |%varavg| %total
---------------------------------------------------------------
Pair    | 0.11722    | 12.198     | 25.974     | 262.9 |  2.43
Bond    | 0.07284    | 0.31677    | 0.75542    |  28.6 |  0.06
Neigh   | 328.64     | 338.9      | 346.84     |  23.9 | 67.51
Comm    | 30.477     | 77.317     | 125.02     | 264.2 | 15.40
Output  | 0.020637   | 0.098051   | 0.17115    |  15.1 |  0.02
Modify  | 31.859     | 65.565     | 114.55     | 283.5 | 13.06
Other   |            | 7.632      |            |       |  1.52

Nlocal:        2130.74 ave        6449 max           0 min
Histogram: 130 156 20 22 119 26 29 82 4 12
Nghost:        12740.9 ave       25806 max        5919 min
Histogram: 121 27 154 36 117 67 37 31 4 6
Neighs:          19225 ave       41457 max           0 min
Histogram: 150 5 104 69 2 3 50 53 42 122

Total # of neighbors = 11534973
Ave neighs/atom = 9.022687
Ave special neighs/atom = 0.17960625
Neighbor list builds = 8324
Dangerous builds = 0
========================================
Simulation complete
========================================
System init for write_data ...
Generated 0 of 15 mixed pair_coeff terms from geometric mixing rule
Last active /omp style is bond_style fene/omp
WARNING: More than one fix rigid (src/RIGID/fix_rigid.cpp:712)
WARNING: More than one fix rigid (src/RIGID/fix_rigid.cpp:712)
WARNING: More than one fix rigid (src/RIGID/fix_rigid.cpp:712)
WARNING: Not all mixed pair coeffs generated from mixing. Use write_data with 'pair ij' option to store all pair coeffs. (src/write_data.cpp:364)
Total wall time: 0:21:54
======================================
Running post-processing...
======================================
Generating convergence plot...
Generating stress profiles...
Found data file: ./final_flow_walled_slab_support_5beads_tall_4_1.0_1.05_15000000_1.0_1.05_50000.data
Stress profile saved to ./output_plots/walled_slab_support_5beads_tall_4_1.0_1.05_15000000_1.0_1.05_50000_stress.png
No volume data found for walled_slab_support_5beads_tall_4_1.0_1.05_15000000_1.0_1.05_50000, skipping volume fraction plots
Generating piston plots...
Read 20 position points, 20 velocity points
Piston plot saved to ./output_plots/walled_slab_support_5beads_tall_4_1.0_1.05_15000000_1.0_1.05_50000_piston.png

=== Piston Summary ===
Initial position: 121.5395
Final position:   104.1407
Total displacement: -17.3987
Steady-state velocity: 0.00e+00 Â± 0.00e+00
Generating computational efficiency plot...
Found data file: ./data_files/walled_slab_support_5beads_tall_4_1.0_1.05_15000000.data
Mobile atoms: 1152000
======================================
Done! Results are in: /jet/home/dpollard/Documents/lammps_runs/slab_with_flow_walled_slab_support_5beads_tall_4_1.0_1.05_15000000_1.0_1.05_20260214_152207
======================================
