======================================
Working directory: /jet/home/dpollard/Documents/lammps_runs/slab_with_flow_walled_slab_support_5beads_10x10x5_rho6_extra_padding43_1.5_1.4_10000000_1.5_1.4_20260115_134026
Trajectory directory (scratch): /ocean/projects/chm250028p/dpollard/lammps_trajectories/slab_with_flow_walled_slab_support_5beads_10x10x5_rho6_extra_padding43_1.5_1.4_10000000_1.5_1.4_20260115_134026
======================================
Running LAMMPS in slab_with_flow with:
  dataname=walled_slab_support_5beads_10x10x5_rho6_extra_padding43_1.5_1.4_10000000
  epsSS=1.5, epsSP=1.4
  nsteps=50000, oldsteps=0, totsteps=50000
SLURM tasks per node: 120
SLURM CPUs per task: 1
SLURM_GPUS_ON_NODE: 
GPUs allocated: 
Running CPU-only with 480 tasks
LAMMPS (22 Jul 2025)
  using 1 OpenMP thread(s) per MPI task
using multi-threaded neighbor list subroutines
Reading data file ...
  orthogonal box = (-6.8704069 -6.8704069 -4.3828458) to (93.870407 93.870407 59.882846)
  8 by 10 by 6 MPI processor grid
  reading atoms ...
  1323878 atoms
  scanning bonds ...
  3 = max bonds/atom
  orthogonal box = (-6.8704069 -6.8704069 -4.3828458) to (93.870407 93.870407 59.882846)
  8 by 10 by 6 MPI processor grid
  reading bonds ...
  143511 bonds
Finding 1-2 1-3 1-4 neighbors ...
  special bond factors lj:    0        0        0       
  special bond factors coul:  0        0        0       
     4 = max # of 1-2 neighbors
     4 = max # of 1-3 neighbors
     8 = max # of 1-4 neighbors
    12 = max # of special neighbors
  special bonds CPU = 0.130 seconds
  read_data CPU = 8.676 seconds
========================================
Flow simulation: walled_slab_support_5beads_10x10x5_rho6_extra_padding43_1.5_1.4_10000000
Interaction: epsSS=1.5, epsSP=1.4
Production steps: 50000
Piston force per bead: -0.1
========================================
126752 atoms in group polymer
310822 atoms in group solvent
109654 atoms in group support
109654 atoms in group piston
666996 atoms in group walls
437574 atoms in group mobile
656882 atoms in group gel_system
Finding 1-2 1-3 1-4 neighbors ...
  special bond factors lj:    0        1        1       
  special bond factors coul:  0        1        1       
     4 = max # of 1-2 neighbors
    12 = max # of special neighbors
  special bonds CPU = 0.044 seconds
  1 rigid bodies with 109654 atoms
  1 rigid bodies with 109654 atoms
  1 rigid bodies with 666996 atoms
========================================
Phase 1: Soft push to resolve solvent-piston overlaps
========================================
Generated 0 of 15 mixed pair_coeff terms from geometric mixing rule
Hybrid pair style last /omp style soft
Last active /omp style is bond_style fene/omp
WARNING: More than one fix rigid (src/RIGID/fix_rigid.cpp:712)
WARNING: More than one fix rigid (src/RIGID/fix_rigid.cpp:712)
WARNING: More than one fix rigid (src/RIGID/fix_rigid.cpp:712)
Neighbor list info ...
  update: every = 1 steps, delay = 0 steps, check = yes
  max neighbors/atom: 2000, page size: 100000
  master list distance cutoff = 2.8
  ghost atom cutoff = 5
  binsize = 1.4, bins = 72 72 46
  2 neighbor lists, perpetual/occasional/extra = 2 0 0
  (1) pair lj/cut, perpetual
      attributes: half, newton on, omp, cut 2.8
      pair build: half/bin/newton/omp
      stencil: half/bin/3d
      bin: standard
  (2) pair soft, perpetual, skip from (1)
      attributes: half, newton on, omp
      pair build: skip/omp
      stencil: none
      bin: none
Setting up Verlet run ...
  Unit style    : lj
  Current step  : 0
  Time step     : 0.005
Per MPI rank memory allocation (min/avg/max) = 16.79 | 23.64 | 39.16 Mbytes
   Step          Temp          PotEng         KinEng         TotEng         Press          Volume           Lx             Ly             Lz      
         0   0             -0.032144261    0             -0.032144261    0.021388102    652213.97      100.74081      100.74081      64.265692    
      1000   1.164402      -0.20198948     0.57730152     0.37531204     2.0089331      652213.97      100.74081      100.74081      64.265692    
Loop time of 29.2343 on 480 procs for 1000 steps with 1323878 atoms

Performance: 14777.152 tau/day, 34.206 timesteps/s, 45.285 Matom-step/s
99.3% CPU use with 480 MPI tasks x 1 OpenMP threads

MPI task timing breakdown:
Section |  min time  |  avg time  |  max time  |%varavg| %total
---------------------------------------------------------------
Pair    | 0.51805    | 1.1252     | 1.9501     |  19.2 |  3.85
Bond    | 0.0034656  | 0.017608   | 0.033116   |   5.4 |  0.06
Neigh   | 23.97      | 24.444     | 24.885     |   4.9 | 83.61
Comm    | 1.0386     | 1.9761     | 3.0219     |  33.7 |  6.76
Output  | 0.0077321  | 0.049272   | 0.086899   |  10.5 |  0.17
Modify  | 0.87194    | 1.3919     | 2.0299     |  19.7 |  4.76
Other   |            | 0.2307     |            |       |  0.79

Nlocal:        2758.08 ave        5678 max        1150 min
Histogram: 192 0 56 40 0 79 19 30 39 25
Nghost:        14309.8 ave       27886 max        7069 min
Histogram: 144 16 96 62 10 24 96 0 0 32
Neighs:        75040.9 ave      139759 max       22537 min
Histogram: 3 19 132 102 52 64 41 21 20 26

Total # of neighbors = 36019633
Ave neighs/atom = 27.207668
Ave special neighs/atom = 0.21680397
Neighbor list builds = 487
Dangerous builds = 0
Soft push complete - overlaps resolved
========================================
Phase 2: Switching to full LJ interactions
========================================
Generated 0 of 15 mixed pair_coeff terms from geometric mixing rule
Last active /omp style is bond_style fene/omp
WARNING: More than one fix rigid (src/RIGID/fix_rigid.cpp:712)
WARNING: More than one fix rigid (src/RIGID/fix_rigid.cpp:712)
WARNING: More than one fix rigid (src/RIGID/fix_rigid.cpp:712)
Neighbor list info ...
  update: every = 1 steps, delay = 0 steps, check = yes
  max neighbors/atom: 2000, page size: 100000
  master list distance cutoff = 2.8
  ghost atom cutoff = 5
  binsize = 1.4, bins = 72 72 46
  1 neighbor lists, perpetual/occasional/extra = 1 0 0
  (1) pair lj/cut/omp, perpetual
      attributes: half, newton on, omp
      pair build: half/bin/newton/omp
      stencil: half/bin/3d
      bin: standard
Setting up cg style minimization ...
  Unit style    : lj
  Current step  : 1000
Per MPI rank memory allocation (min/avg/max) = 18.78 | 26.14 | 43.39 Mbytes
   Step          Temp          PotEng         KinEng         TotEng         Press          Volume           Lx             Ly             Lz      
      1000   1.164402      -0.32345084     0.57730152     0.25385068     2.2086086      652213.97      100.74081      100.74081      64.265692    
      1483   1.164402      -0.96444632     0.57730152    -0.3871448     -2.1845677      652213.97      100.74081      100.74081      64.265692    
Loop time of 7.26609 on 480 procs for 483 steps with 1323878 atoms

99.3% CPU use with 480 MPI tasks x 1 OpenMP threads

Minimization stats:
  Stopping criterion = energy tolerance
  Energy initial, next-to-last, final = 
    -0.323450837283187 -0.964362977505852 -0.964446322922653
  Force two-norm initial, final = 33796.262 763.18642
  Force max component initial, final = 7715.4509 181.10987
  Final line search alpha, max atom move = 0.00043943363 0.079585765
  Iterations, force evaluations = 483 522

MPI task timing breakdown:
Section |  min time  |  avg time  |  max time  |%varavg| %total
---------------------------------------------------------------
Pair    | 0.040774   | 0.42758    | 0.7523     |  31.8 |  5.88
Bond    | 0.00063588 | 0.0073993  | 0.017035   |   4.3 |  0.10
Neigh   | 5.4184     | 5.5197     | 5.6197     |   2.2 | 75.97
Comm    | 0.41914    | 0.89616    | 1.4316     |  27.9 | 12.33
Output  | 0          | 0          | 0          |   0.0 |  0.00
Modify  | 0.0055859  | 0.016896   | 0.03527    |   6.3 |  0.23
Other   |            | 0.3984     |            |       |  5.48

Nlocal:        2758.08 ave        5658 max        1258 min
Histogram: 192 0 69 27 0 80 36 12 39 25
Nghost:        14325.9 ave       27809 max        7430 min
Histogram: 144 16 96 72 0 24 96 0 0 32
Neighs:        38697.6 ave       65101 max        2175 min
Histogram: 30 50 65 40 7 24 18 40 143 63

Total # of neighbors = 18574846
Ave neighs/atom = 14.030633
Ave special neighs/atom = 0.21680397
Neighbor list builds = 119
Dangerous builds = 2
Generated 0 of 15 mixed pair_coeff terms from geometric mixing rule
Last active /omp style is bond_style fene/omp
WARNING: More than one fix rigid (src/RIGID/fix_rigid.cpp:712)
WARNING: More than one fix rigid (src/RIGID/fix_rigid.cpp:712)
WARNING: More than one fix rigid (src/RIGID/fix_rigid.cpp:712)
Setting up Verlet run ...
  Unit style    : lj
  Current step  : 1483
  Time step     : 0.005
Per MPI rank memory allocation (min/avg/max) = 17.66 | 24.38 | 40.01 Mbytes
   Step          Temp          PotEng         KinEng         TotEng         Press          Volume           Lx             Ly             Lz      
      1483   1.164402      -0.96444632     0.57730152    -0.3871448     -0.69615306     652213.97      100.74081      100.74081      64.265692    
WARNING: Lost atoms: original 1323878 current 1323877
For more information see https://docs.lammps.org/err0008 (src/thermo.cpp:532)
      5000   3.1178585e-46 -0.95579519     1.5458113e-46 -0.95579519    -2.1224476      652213.97      100.74081      100.74081      64.265692    
      6483   1.7946294e-46 -0.96766077     8.8976406e-47 -0.96766077    -2.1077176      652213.97      100.74081      100.74081      64.265692    
Loop time of 42.0075 on 480 procs for 5000 steps with 1323877 atoms

Performance: 51419.368 tau/day, 119.026 timesteps/s, 157.576 Matom-step/s
99.4% CPU use with 480 MPI tasks x 1 OpenMP threads

MPI task timing breakdown:
Section |  min time  |  avg time  |  max time  |%varavg| %total
---------------------------------------------------------------
Pair    | 0.14172    | 2.2554     | 3.5117     |  68.2 |  5.37
Bond    | 0.004406   | 0.024351   | 0.04175    |   7.0 |  0.06
Neigh   | 27.813     | 28.358     | 28.895     |   5.4 | 67.51
Comm    | 3.5037     | 7.0593     | 10.574     |  67.1 | 16.80
Output  | 0.038042   | 0.24018    | 0.42204    |  23.3 |  0.57
Modify  | 1.7956     | 3.3335     | 5.5248     |  48.2 |  7.94
Other   |            | 0.7371     |            |       |  1.75

Nlocal:        2758.08 ave        5717 max        1255 min
Histogram: 192 0 78 18 0 80 38 11 39 24
Nghost:        14315.4 ave       28283 max        7456 min
Histogram: 144 16 96 72 0 26 94 0 3 29
Neighs:        38145.8 ave       58995 max         954 min
Histogram: 22 19 34 66 51 6 33 13 84 152

Total # of neighbors = 18309966
Ave neighs/atom = 13.830564
Ave special neighs/atom = 0.21680413
Neighbor list builds = 614
Dangerous builds = 106
========================================
Phase 3: Production flow with piston forcing
========================================
  1 rigid bodies with 109654 atoms
Generated 0 of 15 mixed pair_coeff terms from geometric mixing rule
Last active /omp style is bond_style fene/omp
WARNING: More than one fix rigid (src/RIGID/fix_rigid.cpp:712)
WARNING: More than one fix rigid (src/RIGID/fix_rigid.cpp:712)
WARNING: More than one fix rigid (src/RIGID/fix_rigid.cpp:712)
Setting up Verlet run ...
  Unit style    : lj
  Current step  : 6483
  Time step     : 0.005
Per MPI rank memory allocation (min/avg/max) = 19.3 | 27.74 | 47.15 Mbytes
   Step          Temp          PotEng         KinEng         TotEng         Press          Volume           Lx             Ly             Lz      
      6483   1.7946335e-46 -0.96766077     8.8976406e-47 -0.96766077    -2.0981145      652213.97      100.74081      100.74081      64.265692    
     10000   0.58626097    -0.89001288     0.29066322    -0.59934966     0.43612787     652213.97      100.74081      100.74081      64.265692    
     15000   1.0038989     -0.59332053     0.49772455    -0.095595982    0.27285497     652213.97      100.74081      100.74081      64.265692    
     20000   1.0010539     -0.60348619     0.49631403    -0.10717217     0.52670567     652213.97      100.74081      100.74081      64.265692    
     25000   0.9993098     -0.60955045     0.49544933    -0.11410111     0.28817024     652213.97      100.74081      100.74081      64.265692    
     30000   1.0011127     -0.61220206     0.49634317    -0.11585889     0.42105442     652213.97      100.74081      100.74081      64.265692    
     35000   0.99963758    -0.61549961     0.49561184    -0.11988777     0.44338836     652213.97      100.74081      100.74081      64.265692    
     40000   0.99955028    -0.61983318     0.49556856    -0.12426463     0.27576022     652213.97      100.74081      100.74081      64.265692    
     45000   1.0022542     -0.62239235     0.49690913    -0.12548322     0.45984008     652213.97      100.74081      100.74081      64.265692    
     50000   1.0006865     -0.61958642     0.4961319     -0.12345452     0.40506041     652213.97      100.74081      100.74081      64.265692    
     55000   1.0008407     -0.62004348     0.49620836    -0.12383512     0.50913601     652213.97      100.74081      100.74081      64.265692    
     56483   1.0010272     -0.62234139     0.49630081    -0.12604058     0.50103505     652213.97      100.74081      100.74081      64.265692    
Loop time of 665.054 on 480 procs for 50000 steps with 1323877 atoms

Performance: 32478.578 tau/day, 75.182 timesteps/s, 99.532 Matom-step/s
99.3% CPU use with 480 MPI tasks x 1 OpenMP threads

MPI task timing breakdown:
Section |  min time  |  avg time  |  max time  |%varavg| %total
---------------------------------------------------------------
Pair    | 5.2328     | 24.166     | 34.084     | 163.7 |  3.63
Bond    | 0.093276   | 0.3208     | 0.50283    |  19.8 |  0.05
Neigh   | 505.45     | 515.44     | 525.79     |  25.4 | 77.50
Comm    | 39.25      | 77.053     | 112.68     | 211.9 | 11.59
Output  | 0.021314   | 0.12229    | 0.21772    |  16.9 |  0.02
Modify  | 26.032     | 41.817     | 62.564     | 142.7 |  6.29
Other   |            | 6.134      |            |       |  0.92

Nlocal:        2758.08 ave        5733 max        1227 min
Histogram: 192 0 51 45 0 77 26 25 40 24
Nghost:          14304 ave       28185 max        7314 min
Histogram: 108 74 82 41 51 16 60 20 12 16
Neighs:        39150.2 ave       53705 max        8035 min
Histogram: 4 24 23 30 93 43 23 0 2 238

Total # of neighbors = 18792115
Ave neighs/atom = 14.194759
Ave special neighs/atom = 0.21680413
Neighbor list builds = 12030
Dangerous builds = 0
========================================
Flow simulation complete
========================================
System init for write_data ...
Generated 0 of 15 mixed pair_coeff terms from geometric mixing rule
Last active /omp style is bond_style fene/omp
WARNING: More than one fix rigid (src/RIGID/fix_rigid.cpp:712)
WARNING: More than one fix rigid (src/RIGID/fix_rigid.cpp:712)
WARNING: More than one fix rigid (src/RIGID/fix_rigid.cpp:712)
WARNING: Not all mixed pair coeffs generated from mixing. Use write_data with 'pair ij' option to store all pair coeffs. (src/write_data.cpp:364)
Total wall time: 0:12:35
======================================
Running post-processing...
======================================
Generating convergence plot...
Plot saved to ./output_plots/convergence_plots/walled_slab_support_5beads_10x10x5_rho6_extra_padding43_1.5_1.4_10000000_1.5_1.4_50000_convergence.png
Generating stress profiles...
Warning: Could not find data file (tried walled_slab_support_5beads_10x10x5_rho6_extra_padding43.data and walled_slab_support_5beads_10x10x5_rho6_extra_padding43_1.5_1.4_10000000_1.5_1.4_50000.data), using default box dimensions
Stress profile saved to ./output_plots/walled_slab_support_5beads_10x10x5_rho6_extra_padding43_1.5_1.4_10000000_1.5_1.4_50000_stress.png
No volume data found for walled_slab_support_5beads_10x10x5_rho6_extra_padding43_1.5_1.4_10000000_1.5_1.4_50000, skipping volume fraction plots
Generating piston plots...
Read 5 position points, 5 velocity points
Piston plot saved to ./output_plots/walled_slab_support_5beads_10x10x5_rho6_extra_padding43_1.5_1.4_10000000_1.5_1.4_50000_piston.png

=== Piston Summary ===
Initial position: 54.4421
Final position:   52.7695
Total displacement: -1.6725
Generating computational efficiency plot...
Found data file: ./data_files/walled_slab_support_5beads_10x10x5_rho6_extra_padding43_1.5_1.4_10000000.data
Mobile atoms: 1104570
Entry 'walled_slab_support_5beads_10x10x5_rho6_extra_padding43_1.5_1.4_10000000_1.5_1.4_50000' already exists in tracking file, skipping.
Tracking info written to /jet/home/dpollard/Documents/lammps_work/tracking.txt
Saved /jet/home/dpollard/Documents/lammps_work/time_vs_atoms.png
Saved /jet/home/dpollard/Documents/lammps_work/time_vs_timesteps.png
======================================
Done! Results are in: /jet/home/dpollard/Documents/lammps_runs/slab_with_flow_walled_slab_support_5beads_10x10x5_rho6_extra_padding43_1.5_1.4_10000000_1.5_1.4_20260115_134026
======================================
