======================================
Working directory: /jet/home/dpollard/Documents/lammps_runs/slab_with_flow_walled_slab_support_5beads_10x10x5_rho6_extra_padding43_1.5_1.4_10000000_1.5_1.4_20260109_184343
Trajectory directory (scratch): /ocean/projects/chm250028p/dpollard/lammps_trajectories/slab_with_flow_walled_slab_support_5beads_10x10x5_rho6_extra_padding43_1.5_1.4_10000000_1.5_1.4_20260109_184343
======================================
Running LAMMPS in slab_with_flow with:
  dataname=walled_slab_support_5beads_10x10x5_rho6_extra_padding43_1.5_1.4_10000000
  epsSS=1.5, epsSP=1.4
  nsteps=50000, oldsteps=0, totsteps=50000
SLURM tasks per node: 120
SLURM CPUs per task: 1
SLURM_GPUS_ON_NODE: 
GPUs allocated: 
Running CPU-only with 480 tasks
LAMMPS (22 Jul 2025)
  using 1 OpenMP thread(s) per MPI task
using multi-threaded neighbor list subroutines
Reading data file ...
  orthogonal box = (-6.8704069 -6.8704069 -4.3828458) to (93.870407 93.870407 59.882846)
  8 by 10 by 6 MPI processor grid
  reading atoms ...
  1323878 atoms
  scanning bonds ...
  3 = max bonds/atom
  orthogonal box = (-6.8704069 -6.8704069 -4.3828458) to (93.870407 93.870407 59.882846)
  8 by 10 by 6 MPI processor grid
  reading bonds ...
  143511 bonds
Finding 1-2 1-3 1-4 neighbors ...
  special bond factors lj:    0        0        0       
  special bond factors coul:  0        0        0       
     4 = max # of 1-2 neighbors
     4 = max # of 1-3 neighbors
     8 = max # of 1-4 neighbors
    12 = max # of special neighbors
  special bonds CPU = 0.135 seconds
  read_data CPU = 8.586 seconds
========================================
Flow simulation: walled_slab_support_5beads_10x10x5_rho6_extra_padding43_1.5_1.4_10000000
Interaction: epsSS=1.5, epsSP=1.4
Production steps: 50000
Piston force per bead: -0.1
========================================
126752 atoms in group polymer
310822 atoms in group solvent
109654 atoms in group support
109654 atoms in group piston
666996 atoms in group walls
437574 atoms in group mobile
656882 atoms in group gel_system
Finding 1-2 1-3 1-4 neighbors ...
  special bond factors lj:    0        1        1       
  special bond factors coul:  0        1        1       
     4 = max # of 1-2 neighbors
    12 = max # of special neighbors
  special bonds CPU = 0.042 seconds
  1 rigid bodies with 109654 atoms
  1 rigid bodies with 109654 atoms
  1 rigid bodies with 666996 atoms
========================================
Phase 1: Soft push to resolve solvent-piston overlaps
========================================
Generated 0 of 15 mixed pair_coeff terms from geometric mixing rule
Hybrid pair style last /omp style soft
Last active /omp style is bond_style fene/omp
WARNING: More than one fix rigid (src/RIGID/fix_rigid.cpp:712)
WARNING: More than one fix rigid (src/RIGID/fix_rigid.cpp:712)
WARNING: More than one fix rigid (src/RIGID/fix_rigid.cpp:712)
Neighbor list info ...
  update: every = 1 steps, delay = 0 steps, check = yes
  max neighbors/atom: 2000, page size: 100000
  master list distance cutoff = 2.8
  ghost atom cutoff = 5
  binsize = 1.4, bins = 72 72 46
  2 neighbor lists, perpetual/occasional/extra = 2 0 0
  (1) pair lj/cut, perpetual
      attributes: half, newton on, omp, cut 2.8
      pair build: half/bin/newton/omp
      stencil: half/bin/3d
      bin: standard
  (2) pair soft, perpetual, skip from (1)
      attributes: half, newton on, omp
      pair build: skip/omp
      stencil: none
      bin: none
Setting up Verlet run ...
  Unit style    : lj
  Current step  : 0
  Time step     : 0.005
Per MPI rank memory allocation (min/avg/max) = 16.79 | 23.64 | 39.16 Mbytes
   Step          Temp          PotEng         KinEng         TotEng         Press          Volume           Lx             Ly             Lz      
         0   0             -0.032144261    0             -0.032144261    0.021388102    652213.97      100.74081      100.74081      64.265692    
      1000   1.164402      -0.20198948     0.57730152     0.37531204     1.9842593      652213.97      100.74081      100.74081      64.265692    
Loop time of 28.973 on 480 procs for 1000 steps with 1323878 atoms

Performance: 14910.422 tau/day, 34.515 timesteps/s, 45.693 Matom-step/s
99.3% CPU use with 480 MPI tasks x 1 OpenMP threads

MPI task timing breakdown:
Section |  min time  |  avg time  |  max time  |%varavg| %total
---------------------------------------------------------------
Pair    | 0.51728    | 1.1316     | 1.7866     |  19.5 |  3.91
Bond    | 0.0037279  | 0.017599   | 0.035784   |   5.4 |  0.06
Neigh   | 23.923     | 24.396     | 24.837     |   4.9 | 84.20
Comm    | 1.0128     | 1.9876     | 3.3322     |  33.2 |  6.86
Output  | 0.00013025 | 0.00014283 | 0.00016487 |   0.0 |  0.00
Modify  | 0.72722    | 1.2467     | 1.8901     |  19.7 |  4.30
Other   |            | 0.193      |            |       |  0.67

Nlocal:        2758.08 ave        5678 max        1150 min
Histogram: 192 0 56 40 0 79 19 30 39 25
Nghost:        14309.8 ave       27886 max        7069 min
Histogram: 144 16 96 62 10 24 96 0 0 32
Neighs:        75040.9 ave      139759 max       22537 min
Histogram: 3 19 132 102 52 64 41 21 20 26

Total # of neighbors = 36019633
Ave neighs/atom = 27.207668
Ave special neighs/atom = 0.21680397
Neighbor list builds = 487
Dangerous builds = 0
Soft push complete - overlaps resolved
========================================
Phase 2: Switching to full LJ interactions
========================================
Generated 0 of 15 mixed pair_coeff terms from geometric mixing rule
Last active /omp style is bond_style fene/omp
WARNING: More than one fix rigid (src/RIGID/fix_rigid.cpp:712)
WARNING: More than one fix rigid (src/RIGID/fix_rigid.cpp:712)
WARNING: More than one fix rigid (src/RIGID/fix_rigid.cpp:712)
Neighbor list info ...
  update: every = 1 steps, delay = 0 steps, check = yes
  max neighbors/atom: 2000, page size: 100000
  master list distance cutoff = 2.8
  ghost atom cutoff = 5
  binsize = 1.4, bins = 72 72 46
  1 neighbor lists, perpetual/occasional/extra = 1 0 0
  (1) pair lj/cut/omp, perpetual
      attributes: half, newton on, omp
      pair build: half/bin/newton/omp
      stencil: half/bin/3d
      bin: standard
Setting up cg style minimization ...
  Unit style    : lj
  Current step  : 1000
Per MPI rank memory allocation (min/avg/max) = 18.78 | 26.13 | 43.38 Mbytes
   Step          Temp          PotEng         KinEng         TotEng         Press          Volume           Lx             Ly             Lz      
      1000   1.164402      -0.32345084     0.57730152     0.25385068     2.1839348      652213.97      100.74081      100.74081      64.265692    
      1532   1.164402      -0.98642653     0.57730152    -0.40912501    -2.1796894      652213.97      100.74081      100.74081      64.265692    
Loop time of 8.72304 on 480 procs for 532 steps with 1323878 atoms

99.3% CPU use with 480 MPI tasks x 1 OpenMP threads

Minimization stats:
  Stopping criterion = energy tolerance
  Energy initial, next-to-last, final = 
    -0.323450837283187 -0.986331535633045 -0.986426529548492
  Force two-norm initial, final = 33863.115 714.01306
  Force max component initial, final = 7715.4509 155.72193
  Final line search alpha, max atom move = 0.00050402017 0.078486995
  Iterations, force evaluations = 532 563

MPI task timing breakdown:
Section |  min time  |  avg time  |  max time  |%varavg| %total
---------------------------------------------------------------
Pair    | 0.044036   | 0.46491    | 1.142      |  33.5 |  5.33
Bond    | 0.00061222 | 0.0079874  | 0.014347   |   4.5 |  0.09
Neigh   | 6.6225     | 6.7477     | 6.8729     |   2.5 | 77.36
Comm    | 0.3981     | 1.0165     | 1.5801     |  26.9 | 11.65
Output  | 0          | 0          | 0          |   0.0 |  0.00
Modify  | 0.0054963  | 0.016724   | 0.036506   |   6.6 |  0.19
Other   |            | 0.4691     |            |       |  5.38

Nlocal:        2758.08 ave        5646 max        1265 min
Histogram: 192 0 60 36 0 80 36 12 39 25
Nghost:        14325.7 ave       27792 max        7426 min
Histogram: 144 16 96 72 0 24 96 0 0 32
Neighs:        38713.7 ave       64943 max        2182 min
Histogram: 30 51 63 42 6 24 20 27 151 66

Total # of neighbors = 18582575
Ave neighs/atom = 14.036471
Ave special neighs/atom = 0.21680397
Neighbor list builds = 148
Dangerous builds = 6
Generated 0 of 15 mixed pair_coeff terms from geometric mixing rule
Last active /omp style is bond_style fene/omp
WARNING: More than one fix rigid (src/RIGID/fix_rigid.cpp:712)
WARNING: More than one fix rigid (src/RIGID/fix_rigid.cpp:712)
WARNING: More than one fix rigid (src/RIGID/fix_rigid.cpp:712)
Setting up Verlet run ...
  Unit style    : lj
  Current step  : 1532
  Time step     : 0.005
Per MPI rank memory allocation (min/avg/max) = 17.66 | 24.38 | 40.01 Mbytes
   Step          Temp          PotEng         KinEng         TotEng         Press          Volume           Lx             Ly             Lz      
      1532   1.164402      -0.98642653     0.57730152    -0.40912501    -0.68720938     652213.97      100.74081      100.74081      64.265692    
WARNING: Lost atoms: original 1323878 current 1323877
For more information see https://docs.lammps.org/err0008 (src/thermo.cpp:532)
      5000   0             -0.96633167     0             -0.96633167    -2.0279122      652213.97      100.74081      100.74081      64.265692    
      6532   0             -0.98681539     0             -0.98681539    -2.0491999      652213.97      100.74081      100.74081      64.265692    
Loop time of 83.0944 on 480 procs for 5000 steps with 1323877 atoms

Performance: 25994.517 tau/day, 60.172 timesteps/s, 79.661 Matom-step/s
99.4% CPU use with 480 MPI tasks x 1 OpenMP threads

MPI task timing breakdown:
Section |  min time  |  avg time  |  max time  |%varavg| %total
---------------------------------------------------------------
Pair    | 0.15603    | 2.2631     | 3.3428     |  62.2 |  2.72
Bond    | 0.0046239  | 0.024474   | 0.043112   |   6.7 |  0.03
Neigh   | 67.437     | 68.74      | 70.084     |   8.3 | 82.73
Comm    | 4.0578     | 8.1686     | 12.209     |  70.7 |  9.83
Output  | 0.00027151 | 0.00029627 | 0.00033296 |   0.0 |  0.00
Modify  | 1.869      | 3.3399     | 5.3257     |  45.7 |  4.02
Other   |            | 0.5577     |            |       |  0.67

Nlocal:        2758.08 ave        5720 max        1242 min
Histogram: 192 0 65 31 0 80 31 17 40 24
Nghost:        14307.9 ave       28225 max        7469 min
Histogram: 144 16 96 72 0 24 96 0 0 32
Neighs:        38117.2 ave       54907 max        1549 min
Histogram: 15 14 20 46 78 22 24 21 26 214

Total # of neighbors = 18296239
Ave neighs/atom = 13.820196
Ave special neighs/atom = 0.21680413
Neighbor list builds = 1491
Dangerous builds = 1060
========================================
Phase 3: Production flow with piston forcing
========================================
ERROR: Cannot reset timestep with active dump - must undump first (src/output.cpp:648)
Last input line: reset_timestep 0
======================================
Running post-processing...
======================================
Generating convergence plot...
Plot saved to ./output_plots/convergence_plots/walled_slab_support_5beads_10x10x5_rho6_extra_padding43_1.5_1.4_10000000_1.5_1.4_50000_convergence.png
Generating stress profiles...
No stress data found for walled_slab_support_5beads_10x10x5_rho6_extra_padding43_1.5_1.4_10000000_1.5_1.4_50000, skipping stress plots
No volume data found for walled_slab_support_5beads_10x10x5_rho6_extra_padding43_1.5_1.4_10000000_1.5_1.4_50000, skipping volume fraction plots
Generating piston plots...
Error: Piston position file not found: ./output_files/piston_data/piston_position_walled_slab_support_5beads_10x10x5_rho6_extra_padding43_1.5_1.4_10000000_1.5_1.4_50000.dat
Generating computational efficiency plot...
Found data file: ./data_files/walled_slab_support_5beads_10x10x5_rho6_extra_padding43_1.5_1.4_10000000.data
Mobile atoms: 1104570
Entry 'walled_slab_support_5beads_10x10x5_rho6_extra_padding43_1.5_1.4_10000000_1.5_1.4_50000' already exists in tracking file, skipping.
Tracking info written to /jet/home/dpollard/Documents/lammps_work/tracking.txt
Saved /jet/home/dpollard/Documents/lammps_work/time_vs_atoms.png
Saved /jet/home/dpollard/Documents/lammps_work/time_vs_timesteps.png
======================================
Done! Results are in: /jet/home/dpollard/Documents/lammps_runs/slab_with_flow_walled_slab_support_5beads_10x10x5_rho6_extra_padding43_1.5_1.4_10000000_1.5_1.4_20260109_184343
======================================
