======================================
Working directory: /jet/home/dpollard/Documents/lammps_runs/slab_with_flow_walled_slab_support_tall_angle_8_1.0_1.0_10000000_1.0_1.0_20260212_185117
Trajectory directory (scratch): /ocean/projects/chm250028p/dpollard/lammps_trajectories/slab_with_flow_walled_slab_support_tall_angle_8_1.0_1.0_10000000_1.0_1.0_20260212_185117
======================================
Running LAMMPS in slab_with_flow with:
  dataname=walled_slab_support_tall_angle_8_1.0_1.0_10000000
  epsSS=1.0, epsSP=1.0
  nsteps=1000000, oldsteps=0, totsteps=1000000
SLURM tasks per node: 120
SLURM CPUs per task: 1
SLURM_GPUS_ON_NODE: 
GPUs allocated: 
Running CPU-only with 360 tasks
LAMMPS (22 Jul 2025)
  using 1 OpenMP thread(s) per MPI task
using multi-threaded neighbor list subroutines
>>> Stress: nevery=100 nrepeat=1000 nfreq=100000
>>> Mode: compression_mode=1  (0=permeation, 1=compression)
Reading data file ...
  orthogonal box = (-5.5421158 -5.5421158 -9.5223626) to (71.542116 71.542116 122.92236)
  6 by 6 by 10 MPI processor grid
  reading atoms ...
  1205461 atoms
  scanning bonds ...
  3 = max bonds/atom
  scanning angles ...
  6 = max angles/atom
  orthogonal box = (-5.5421158 -5.5421158 -9.5223626) to (71.542116 71.542116 122.92236)
  6 by 6 by 10 MPI processor grid
  reading bonds ...
  114810 bonds
  reading angles ...
  168629 angles
Finding 1-2 1-3 1-4 neighbors ...
  special bond factors lj:    0        0        0       
  special bond factors coul:  0        0        0       
     4 = max # of 1-2 neighbors
     4 = max # of 1-3 neighbors
     8 = max # of 1-4 neighbors
    12 = max # of special neighbors
  special bonds CPU = 0.135 seconds
  read_data CPU = 9.214 seconds
========================================
Flow/Compression simulation: walled_slab_support_tall_angle_8_1.0_1.0_10000000
Interaction: epsSS=1.0, epsSP=1.0
Production steps: 1000000
WARNING: Detected non-ASCII characters in input. Will try to continue by replacing with ASCII equivalents where known. (src/input.cpp:478)
Piston force: -0.001 †’ -0.01 (ramp)
========================================
101482 atoms in group polymer
172757 atoms in group solvent
63221 atoms in group support
63221 atoms in group piston
804780 atoms in group walls
274239 atoms in group mobile
400681 atoms in group gel_system
Finding 1-2 1-3 1-4 neighbors ...
  special bond factors lj:    0        1        1       
  special bond factors coul:  0        1        1       
     4 = max # of 1-2 neighbors
    12 = max # of special neighbors
  special bonds CPU = 0.056 seconds
  1 rigid bodies with 63221 atoms
  1 rigid bodies with 63221 atoms
  1 rigid bodies with 804780 atoms
========================================
Phase 1: Soft push to resolve overlaps
========================================
Generated 0 of 15 mixed pair_coeff terms from geometric mixing rule
WARNING: Angles are defined but no angle style is set (src/force.cpp:202)
Hybrid pair style last /omp style soft
Last active /omp style is bond_style fene/omp
WARNING: More than one fix rigid (src/RIGID/fix_rigid.cpp:712)
WARNING: More than one fix rigid (src/RIGID/fix_rigid.cpp:712)
WARNING: More than one fix rigid (src/RIGID/fix_rigid.cpp:712)
Neighbor list info ...
  update: every = 1 steps, delay = 0 steps, check = yes
  max neighbors/atom: 2000, page size: 100000
  master list distance cutoff = 2.8
  ghost atom cutoff = 5
  binsize = 1.4, bins = 56 56 95
  2 neighbor lists, perpetual/occasional/extra = 2 0 0
  (1) pair lj/cut, perpetual
      attributes: half, newton on, omp, cut 2.8
      pair build: half/bin/newton/omp
      stencil: half/bin/3d
      bin: standard
  (2) pair soft, perpetual, skip from (1)
      attributes: half, newton on, omp
      pair build: skip/omp
      stencil: none
      bin: none
Setting up Verlet run ...
  Unit style    : lj
  Current step  : 0
  Time step     : 0.005
Per MPI rank memory allocation (min/avg/max) = 17.78 | 28.31 | 43.73 Mbytes
   Step     c_mobile_temp      PotEng         KinEng         TotEng         Press          Volume           Lx             Ly             Lz      
         0   0              1.1161366      0              1.1161366      4.1746302      786983.74      77.084232      77.084232      132.44473    
WARNING: FENE bond too long: 49 22494 22406 1.4251206 (src/OPENMP/bond_fene_omp.cpp:116)
WARNING: FENE bond too long: 52 136859 136858 1.4267197 (src/OPENMP/bond_fene_omp.cpp:116)
WARNING: FENE bond too long: 57 16317 16323 1.4244952 (src/OPENMP/bond_fene_omp.cpp:116)
WARNING: FENE bond too long: 57 51816 51815 1.4237487 (src/OPENMP/bond_fene_omp.cpp:116)
WARNING: FENE bond too long: 58 16317 16323 1.4421244 (src/OPENMP/bond_fene_omp.cpp:116)
WARNING: FENE bond too long: 58 395742 395691 1.4538352 (src/OPENMP/bond_fene_omp.cpp:116)
WARNING: FENE bond too long: 58 136422 136435 1.4231412 (src/OPENMP/bond_fene_omp.cpp:116)
WARNING: FENE bond too long: 59 16317 16323 1.4466884 (src/OPENMP/bond_fene_omp.cpp:116)
WARNING: FENE bond too long: 59 395742 395691 1.4767335 (src/OPENMP/bond_fene_omp.cpp:116)
WARNING: FENE bond too long: 59 382727 382724 1.4365639 (src/OPENMP/bond_fene_omp.cpp:116)
WARNING: FENE bond too long: 60 16317 16323 1.4386106 (src/OPENMP/bond_fene_omp.cpp:116)
WARNING: FENE bond too long: 60 270366 270367 1.4347019 (src/OPENMP/bond_fene_omp.cpp:116)
WARNING: FENE bond too long: 60 395742 395691 1.4844828 (src/OPENMP/bond_fene_omp.cpp:116)
WARNING: FENE bond too long: 60 382727 382724 1.4411831 (src/OPENMP/bond_fene_omp.cpp:116)
WARNING: FENE bond too long: 61 270366 270367 1.4481253 (src/OPENMP/bond_fene_omp.cpp:116)
WARNING: FENE bond too long: 61 395742 395691 1.4770567 (src/OPENMP/bond_fene_omp.cpp:116)
WARNING: FENE bond too long: 61 382727 382724 1.4316021 (src/OPENMP/bond_fene_omp.cpp:116)
WARNING: FENE bond too long: 62 270366 270367 1.4486968 (src/OPENMP/bond_fene_omp.cpp:116)
WARNING: FENE bond too long: 62 395742 395691 1.4550876 (src/OPENMP/bond_fene_omp.cpp:116)
WARNING: FENE bond too long: 63 270366 270367 1.4367571 (src/OPENMP/bond_fene_omp.cpp:116)
WARNING: FENE bond too long: 66 16360 16364 1.4255898 (src/OPENMP/bond_fene_omp.cpp:116)
WARNING: FENE bond too long: 67 16360 16364 1.4361484 (src/OPENMP/bond_fene_omp.cpp:116)
WARNING: FENE bond too long: 68 16360 16364 1.4347828 (src/OPENMP/bond_fene_omp.cpp:116)
WARNING: FENE bond too long: 70 246179 246178 1.4372492 (src/OPENMP/bond_fene_omp.cpp:116)
WARNING: FENE bond too long: 71 246179 246178 1.4895569 (src/OPENMP/bond_fene_omp.cpp:116)
WARNING: FENE bond too long: 72 246179 246178 1.5297329 (src/OPENMP/bond_fene_omp.cpp:116)
WARNING: FENE bond too long: 73 246179 246178 1.5563781 (src/OPENMP/bond_fene_omp.cpp:116)
WARNING: FENE bond too long: 74 246179 246178 1.5685601 (src/OPENMP/bond_fene_omp.cpp:116)
WARNING: FENE bond too long: 75 246179 246178 1.5659635 (src/OPENMP/bond_fene_omp.cpp:116)
WARNING: FENE bond too long: 76 246179 246178 1.5488569 (src/OPENMP/bond_fene_omp.cpp:116)
WARNING: FENE bond too long: 77 246179 246178 1.5182048 (src/OPENMP/bond_fene_omp.cpp:116)
WARNING: FENE bond too long: 78 246179 246178 1.4756606 (src/OPENMP/bond_fene_omp.cpp:116)
WARNING: FENE bond too long: 79 270366 270367 1.425248 (src/OPENMP/bond_fene_omp.cpp:116)
WARNING: FENE bond too long: 79 246179 246178 1.423378 (src/OPENMP/bond_fene_omp.cpp:116)
WARNING: FENE bond too long: 80 270366 270367 1.4305688 (src/OPENMP/bond_fene_omp.cpp:116)
WARNING: FENE bond too long: 83 10319 10309 1.4469826 (src/OPENMP/bond_fene_omp.cpp:116)
WARNING: FENE bond too long: 84 10319 10309 1.4764739 (src/OPENMP/bond_fene_omp.cpp:116)
WARNING: FENE bond too long: 85 10319 10309 1.4942004 (src/OPENMP/bond_fene_omp.cpp:116)
WARNING: FENE bond too long: 85 16475 16483 1.4383534 (src/OPENMP/bond_fene_omp.cpp:116)
WARNING: FENE bond too long: 86 10319 10309 1.4993681 (src/OPENMP/bond_fene_omp.cpp:116)
WARNING: FENE bond too long: 86 16475 16483 1.4543793 (src/OPENMP/bond_fene_omp.cpp:116)
WARNING: FENE bond too long: 87 16475 16483 1.4578299 (src/OPENMP/bond_fene_omp.cpp:116)
WARNING: FENE bond too long: 87 10319 10309 1.4917917 (src/OPENMP/bond_fene_omp.cpp:116)
WARNING: FENE bond too long: 87 395742 395691 1.436301 (src/OPENMP/bond_fene_omp.cpp:116)
WARNING: FENE bond too long: 88 10319 10309 1.4719759 (src/OPENMP/bond_fene_omp.cpp:116)
WARNING: FENE bond too long: 88 16475 16483 1.4487218 (src/OPENMP/bond_fene_omp.cpp:116)
WARNING: FENE bond too long: 88 395742 395691 1.4399519 (src/OPENMP/bond_fene_omp.cpp:116)
WARNING: FENE bond too long: 89 16475 16483 1.427884 (src/OPENMP/bond_fene_omp.cpp:116)
WARNING: FENE bond too long: 89 16317 16323 1.4261932 (src/OPENMP/bond_fene_omp.cpp:116)
WARNING: FENE bond too long: 89 10319 10309 1.441022 (src/OPENMP/bond_fene_omp.cpp:116)
WARNING: FENE bond too long: 89 395742 395691 1.4303662 (src/OPENMP/bond_fene_omp.cpp:116)
WARNING: FENE bond too long: 89 270038 270101 1.4343507 (src/OPENMP/bond_fene_omp.cpp:116)
WARNING: FENE bond too long: 90 16317 16323 1.4481756 (src/OPENMP/bond_fene_omp.cpp:116)
WARNING: FENE bond too long: 90 270038 270101 1.4616569 (src/OPENMP/bond_fene_omp.cpp:116)
WARNING: FENE bond too long: 90 51815 51716 1.4462411 (src/OPENMP/bond_fene_omp.cpp:116)
WARNING: FENE bond too long: 91 16317 16323 1.4615298 (src/OPENMP/bond_fene_omp.cpp:116)
WARNING: FENE bond too long: 91 270038 270101 1.4758134 (src/OPENMP/bond_fene_omp.cpp:116)
WARNING: FENE bond too long: 91 51815 51716 1.4619352 (src/OPENMP/bond_fene_omp.cpp:116)
WARNING: FENE bond too long: 92 16317 16323 1.4658136 (src/OPENMP/bond_fene_omp.cpp:116)
WARNING: FENE bond too long: 92 270038 270101 1.4765356 (src/OPENMP/bond_fene_omp.cpp:116)
WARNING: FENE bond too long: 92 51815 51716 1.4661164 (src/OPENMP/bond_fene_omp.cpp:116)
WARNING: FENE bond too long: 92 136422 136435 1.4253779 (src/OPENMP/bond_fene_omp.cpp:116)
WARNING: FENE bond too long: 92 246179 246178 1.4470259 (src/OPENMP/bond_fene_omp.cpp:116)
WARNING: FENE bond too long: 93 16317 16323 1.4610341 (src/OPENMP/bond_fene_omp.cpp:116)
WARNING: FENE bond too long: 93 51815 51716 1.4584398 (src/OPENMP/bond_fene_omp.cpp:116)
WARNING: FENE bond too long: 93 270038 270101 1.4646198 (src/OPENMP/bond_fene_omp.cpp:116)
WARNING: FENE bond too long: 93 136422 136435 1.4272011 (src/OPENMP/bond_fene_omp.cpp:116)
WARNING: FENE bond too long: 93 246179 246178 1.478678 (src/OPENMP/bond_fene_omp.cpp:116)
WARNING: FENE bond too long: 94 16317 16323 1.4476627 (src/OPENMP/bond_fene_omp.cpp:116)
WARNING: FENE bond too long: 94 270038 270101 1.4415877 (src/OPENMP/bond_fene_omp.cpp:116)
WARNING: FENE bond too long: 94 51815 51716 1.4391706 (src/OPENMP/bond_fene_omp.cpp:116)
WARNING: FENE bond too long: 94 246179 246178 1.4898502 (src/OPENMP/bond_fene_omp.cpp:116)
WARNING: FENE bond too long: 95 16317 16323 1.4265982 (src/OPENMP/bond_fene_omp.cpp:116)
WARNING: FENE bond too long: 95 270366 270367 1.4598994 (src/OPENMP/bond_fene_omp.cpp:116)
WARNING: FENE bond too long: 95 246179 246178 1.4813642 (src/OPENMP/bond_fene_omp.cpp:116)
WARNING: FENE bond too long: 96 270366 270367 1.4984084 (src/OPENMP/bond_fene_omp.cpp:116)
WARNING: FENE bond too long: 96 246179 246178 1.4588821 (src/OPENMP/bond_fene_omp.cpp:116)
WARNING: FENE bond too long: 97 270366 270367 1.5246925 (src/OPENMP/bond_fene_omp.cpp:116)
WARNING: FENE bond too long: 97 161742 161732 1.4263477 (src/OPENMP/bond_fene_omp.cpp:116)
WARNING: FENE bond too long: 97 136859 136858 1.4264761 (src/OPENMP/bond_fene_omp.cpp:116)
WARNING: FENE bond too long: 97 246179 246178 1.4275825 (src/OPENMP/bond_fene_omp.cpp:116)
WARNING: FENE bond too long: 98 16360 16364 1.4236547 (src/OPENMP/bond_fene_omp.cpp:116)
WARNING: FENE bond too long: 98 270366 270367 1.5372338 (src/OPENMP/bond_fene_omp.cpp:116)
WARNING: FENE bond too long: 98 161742 161732 1.4263045 (src/OPENMP/bond_fene_omp.cpp:116)
WARNING: FENE bond too long: 98 136859 136858 1.4283247 (src/OPENMP/bond_fene_omp.cpp:116)
WARNING: FENE bond too long: 99 16360 16364 1.4268607 (src/OPENMP/bond_fene_omp.cpp:116)
WARNING: FENE bond too long: 99 270366 270367 1.5351574 (src/OPENMP/bond_fene_omp.cpp:116)
WARNING: FENE bond too long: 100 270366 270367 1.5184977 (src/OPENMP/bond_fene_omp.cpp:116)
WARNING: FENE bond too long: 101 270366 270367 1.488313 (src/OPENMP/bond_fene_omp.cpp:116)
WARNING: FENE bond too long: 102 270366 270367 1.446559 (src/OPENMP/bond_fene_omp.cpp:116)
WARNING: FENE bond too long: 102 16475 16483 1.4471031 (src/OPENMP/bond_fene_omp.cpp:116)
WARNING: FENE bond too long: 102 10319 10309 1.4562944 (src/OPENMP/bond_fene_omp.cpp:116)
WARNING: FENE bond too long: 103 10319 10309 1.4881663 (src/OPENMP/bond_fene_omp.cpp:116)
WARNING: FENE bond too long: 103 16475 16483 1.4651681 (src/OPENMP/bond_fene_omp.cpp:116)
WARNING: FENE bond too long: 103 395742 395691 1.4259743 (src/OPENMP/bond_fene_omp.cpp:116)
WARNING: FENE bond too long: 104 10319 10309 1.5099732 (src/OPENMP/bond_fene_omp.cpp:116)
WARNING: FENE bond too long: 104 16475 16483 1.4713584 (src/OPENMP/bond_fene_omp.cpp:116)
WARNING: FENE bond too long: 105 16475 16483 1.465441 (src/OPENMP/bond_fene_omp.cpp:116)
WARNING: FENE bond too long: 105 10319 10309 1.5208274 (src/OPENMP/bond_fene_omp.cpp:116)
WARNING: FENE bond too long: 106 10319 10309 1.5203918 (src/OPENMP/bond_fene_omp.cpp:116)
WARNING: FENE bond too long: 106 16475 16483 1.4482359 (src/OPENMP/bond_fene_omp.cpp:116)
WARNING: FENE bond too long: 106 270038 270101 1.4470713 (src/OPENMP/bond_fene_omp.cpp:116)
WARNING: FENE bond too long: 106 246179 246178 1.4505327 (src/OPENMP/bond_fene_omp.cpp:116)
WARNING: FENE bond too long: 107 10319 10309 1.5088811 (src/OPENMP/bond_fene_omp.cpp:116)
WARNING: FENE bond too long: 107 270038 270101 1.4710879 (src/OPENMP/bond_fene_omp.cpp:116)
WARNING: FENE bond too long: 107 136422 136435 1.4302265 (src/OPENMP/bond_fene_omp.cpp:116)
WARNING: FENE bond too long: 107 246179 246178 1.4868097 (src/OPENMP/bond_fene_omp.cpp:116)
WARNING: FENE bond too long: 108 10319 10309 1.4871002 (src/OPENMP/bond_fene_omp.cpp:116)
WARNING: FENE bond too long: 108 16317 16323 1.4478202 (src/OPENMP/bond_fene_omp.cpp:116)
WARNING: FENE bond too long: 108 270038 270101 1.4855006 (src/OPENMP/bond_fene_omp.cpp:116)
WARNING: FENE bond too long: 108 136422 136435 1.4339417 (src/OPENMP/bond_fene_omp.cpp:116)
WARNING: FENE bond too long: 108 246179 246178 1.5173006 (src/OPENMP/bond_fene_omp.cpp:116)
WARNING: FENE bond too long: 109 16317 16323 1.4711171 (src/OPENMP/bond_fene_omp.cpp:116)
WARNING: FENE bond too long: 109 10319 10309 1.4563724 (src/OPENMP/bond_fene_omp.cpp:116)
WARNING: FENE bond too long: 109 270038 270101 1.489719 (src/OPENMP/bond_fene_omp.cpp:116)
WARNING: FENE bond too long: 109 136422 136435 1.4290056 (src/OPENMP/bond_fene_omp.cpp:116)
WARNING: FENE bond too long: 109 246179 246178 1.5403634 (src/OPENMP/bond_fene_omp.cpp:116)
WARNING: FENE bond too long: 110 16317 16323 1.4859902 (src/OPENMP/bond_fene_omp.cpp:116)
WARNING: FENE bond too long: 110 270038 270101 1.4837812 (src/OPENMP/bond_fene_omp.cpp:116)
WARNING: FENE bond too long: 110 51815 51716 1.4244231 (src/OPENMP/bond_fene_omp.cpp:116)
WARNING: FENE bond too long: 110 136859 136858 1.4272265 (src/OPENMP/bond_fene_omp.cpp:116)
WARNING: FENE bond too long: 110 246179 246178 1.5548371 (src/OPENMP/bond_fene_omp.cpp:116)
WARNING: FENE bond too long: 111 16317 16323 1.4915159 (src/OPENMP/bond_fene_omp.cpp:116)
WARNING: FENE bond too long: 111 270038 270101 1.4683301 (src/OPENMP/bond_fene_omp.cpp:116)
WARNING: FENE bond too long: 111 136859 136858 1.4378479 (src/OPENMP/bond_fene_omp.cpp:116)
WARNING: FENE bond too long: 111 246179 246178 1.5600683 (src/OPENMP/bond_fene_omp.cpp:116)
WARNING: FENE bond too long: 112 16317 16323 1.4873762 (src/OPENMP/bond_fene_omp.cpp:116)
WARNING: FENE bond too long: 112 270038 270101 1.4445344 (src/OPENMP/bond_fene_omp.cpp:116)
WARNING: FENE bond too long: 112 136859 136858 1.4424256 (src/OPENMP/bond_fene_omp.cpp:116)
WARNING: FENE bond too long: 112 246179 246178 1.5559033 (src/OPENMP/bond_fene_omp.cpp:116)
WARNING: FENE bond too long: 113 16360 16364 1.4305287 (src/OPENMP/bond_fene_omp.cpp:116)
WARNING: FENE bond too long: 113 16317 16323 1.4738919 (src/OPENMP/bond_fene_omp.cpp:116)
WARNING: FENE bond too long: 113 136859 136858 1.4407548 (src/OPENMP/bond_fene_omp.cpp:116)
WARNING: FENE bond too long: 113 246179 246178 1.5426538 (src/OPENMP/bond_fene_omp.cpp:116)
WARNING: FENE bond too long: 114 270366 270367 1.4481605 (src/OPENMP/bond_fene_omp.cpp:116)
WARNING: FENE bond too long: 114 16360 16364 1.4395276 (src/OPENMP/bond_fene_omp.cpp:116)
WARNING: FENE bond too long: 114 16317 16323 1.4519974 (src/OPENMP/bond_fene_omp.cpp:116)
WARNING: FENE bond too long: 114 382727 382724 1.426825 (src/OPENMP/bond_fene_omp.cpp:116)
WARNING: FENE bond too long: 114 136859 136858 1.4329393 (src/OPENMP/bond_fene_omp.cpp:116)
WARNING: FENE bond too long: 114 246179 246178 1.5211196 (src/OPENMP/bond_fene_omp.cpp:116)
WARNING: FENE bond too long: 115 16360 16364 1.4415582 (src/OPENMP/bond_fene_omp.cpp:116)
WARNING: FENE bond too long: 115 16317 16323 1.4231568 (src/OPENMP/bond_fene_omp.cpp:116)
WARNING: FENE bond too long: 115 270366 270367 1.4748571 (src/OPENMP/bond_fene_omp.cpp:116)
WARNING: FENE bond too long: 115 382727 382724 1.4287122 (src/OPENMP/bond_fene_omp.cpp:116)
WARNING: FENE bond too long: 115 395742 395691 1.4360439 (src/OPENMP/bond_fene_omp.cpp:116)
WARNING: FENE bond too long: 115 246179 246178 1.4924912 (src/OPENMP/bond_fene_omp.cpp:116)
WARNING: FENE bond too long: 116 16360 16364 1.4371334 (src/OPENMP/bond_fene_omp.cpp:116)
WARNING: FENE bond too long: 116 270366 270367 1.4929043 (src/OPENMP/bond_fene_omp.cpp:116)
WARNING: FENE bond too long: 116 382727 382724 1.4241627 (src/OPENMP/bond_fene_omp.cpp:116)
WARNING: FENE bond too long: 116 395742 395691 1.4506886 (src/OPENMP/bond_fene_omp.cpp:116)
WARNING: FENE bond too long: 116 246179 246178 1.4582297 (src/OPENMP/bond_fene_omp.cpp:116)
WARNING: FENE bond too long: 117 16360 16364 1.4269561 (src/OPENMP/bond_fene_omp.cpp:116)
WARNING: FENE bond too long: 117 22494 22406 1.4245482 (src/OPENMP/bond_fene_omp.cpp:116)
WARNING: FENE bond too long: 117 5616 5622 1.4305208 (src/OPENMP/bond_fene_omp.cpp:116)
WARNING: FENE bond too long: 117 270366 270367 1.5024101 (src/OPENMP/bond_fene_omp.cpp:116)
WARNING: FENE bond too long: 117 395742 395691 1.4605033 (src/OPENMP/bond_fene_omp.cpp:116)
WARNING: FENE bond too long: 118 22494 22406 1.4428702 (src/OPENMP/bond_fene_omp.cpp:116)
WARNING: FENE bond too long: 118 270366 270367 1.5031672 (src/OPENMP/bond_fene_omp.cpp:116)
WARNING: FENE bond too long: 118 16475 16483 1.4542976 (src/OPENMP/bond_fene_omp.cpp:116)
WARNING: FENE bond too long: 118 5616 5622 1.4436866 (src/OPENMP/bond_fene_omp.cpp:116)
WARNING: FENE bond too long: 118 395742 395691 1.4651279 (src/OPENMP/bond_fene_omp.cpp:116)
WARNING: FENE bond too long: 119 244965 244964 1.4238994 (src/OPENMP/bond_fene_omp.cpp:116)
WARNING: FENE bond too long: 119 22494 22406 1.4547584 (src/OPENMP/bond_fene_omp.cpp:116)
WARNING: FENE bond too long: 119 5616 5622 1.4478271 (src/OPENMP/bond_fene_omp.cpp:116)
WARNING: FENE bond too long: 119 16475 16483 1.4784262 (src/OPENMP/bond_fene_omp.cpp:116)
WARNING: FENE bond too long: 119 270366 270367 1.4951133 (src/OPENMP/bond_fene_omp.cpp:116)
WARNING: FENE bond too long: 119 395742 395691 1.4644512 (src/OPENMP/bond_fene_omp.cpp:116)
WARNING: FENE bond too long: 120 5616 5622 1.4419895 (src/OPENMP/bond_fene_omp.cpp:116)
WARNING: FENE bond too long: 120 22494 22406 1.459822 (src/OPENMP/bond_fene_omp.cpp:116)
WARNING: FENE bond too long: 120 16475 16483 1.4934341 (src/OPENMP/bond_fene_omp.cpp:116)
WARNING: FENE bond too long: 120 10319 10309 1.4285618 (src/OPENMP/bond_fene_omp.cpp:116)
WARNING: FENE bond too long: 120 270366 270367 1.4785443 (src/OPENMP/bond_fene_omp.cpp:116)
WARNING: FENE bond too long: 120 395742 395691 1.458647 (src/OPENMP/bond_fene_omp.cpp:116)
WARNING: FENE bond too long: 121 5616 5622 1.426248 (src/OPENMP/bond_fene_omp.cpp:116)
WARNING: FENE bond too long: 121 22494 22406 1.4580842 (src/OPENMP/bond_fene_omp.cpp:116)
WARNING: FENE bond too long: 121 16475 16483 1.4980784 (src/OPENMP/bond_fene_omp.cpp:116)
WARNING: FENE bond too long: 121 10319 10309 1.4456956 (src/OPENMP/bond_fene_omp.cpp:116)
WARNING: FENE bond too long: 121 270366 270367 1.4541395 (src/OPENMP/bond_fene_omp.cpp:116)
WARNING: FENE bond too long: 121 395742 395691 1.448161 (src/OPENMP/bond_fene_omp.cpp:116)
WARNING: FENE bond too long: 121 136422 136435 1.4252887 (src/OPENMP/bond_fene_omp.cpp:116)
WARNING: FENE bond too long: 122 22494 22406 1.4499275 (src/OPENMP/bond_fene_omp.cpp:116)
WARNING: FENE bond too long: 122 10319 10309 1.4371958 (src/OPENMP/bond_fene_omp.cpp:116)
WARNING: FENE bond too long: 122 16475 16483 1.4916563 (src/OPENMP/bond_fene_omp.cpp:116)
WARNING: FENE bond too long: 122 395742 395691 1.4336665 (src/OPENMP/bond_fene_omp.cpp:116)
WARNING: FENE bond too long: 122 51815 51716 1.4334766 (src/OPENMP/bond_fene_omp.cpp:116)
WARNING: FENE bond too long: 122 136422 136435 1.4308649 (src/OPENMP/bond_fene_omp.cpp:116)
WARNING: FENE bond too long: 123 22494 22406 1.4359414 (src/OPENMP/bond_fene_omp.cpp:116)
WARNING: FENE bond too long: 123 16475 16483 1.474247 (src/OPENMP/bond_fene_omp.cpp:116)
WARNING: FENE bond too long: 123 51815 51716 1.4582552 (src/OPENMP/bond_fene_omp.cpp:116)
WARNING: FENE bond too long: 123 270038 270101 1.426043 (src/OPENMP/bond_fene_omp.cpp:116)
WARNING: FENE bond too long: 123 136422 136435 1.4262612 (src/OPENMP/bond_fene_omp.cpp:116)
WARNING: FENE bond too long: 124 16475 16483 1.4468667 (src/OPENMP/bond_fene_omp.cpp:116)
WARNING: FENE bond too long: 124 270038 270101 1.4339984 (src/OPENMP/bond_fene_omp.cpp:116)
WARNING: FENE bond too long: 124 51815 51716 1.4767355 (src/OPENMP/bond_fene_omp.cpp:116)
WARNING: FENE bond too long: 125 16317 16323 1.4478265 (src/OPENMP/bond_fene_omp.cpp:116)
WARNING: FENE bond too long: 125 161639 161742 1.4428798 (src/OPENMP/bond_fene_omp.cpp:116)
WARNING: FENE bond too long: 125 270038 270101 1.4268562 (src/OPENMP/bond_fene_omp.cpp:116)
WARNING: FENE bond too long: 125 51815 51716 1.4866021 (src/OPENMP/bond_fene_omp.cpp:116)
WARNING: FENE bond too long: 126 16317 16323 1.4679693 (src/OPENMP/bond_fene_omp.cpp:116)
WARNING: FENE bond too long: 126 161639 161742 1.4556456 (src/OPENMP/bond_fene_omp.cpp:116)
WARNING: FENE bond too long: 126 51815 51716 1.4855973 (src/OPENMP/bond_fene_omp.cpp:116)
WARNING: FENE bond too long: 126 246179 246178 1.4630771 (src/OPENMP/bond_fene_omp.cpp:116)
WARNING: FENE bond too long: 127 16360 16364 1.4338874 (src/OPENMP/bond_fene_omp.cpp:116)
WARNING: FENE bond too long: 127 16317 16323 1.4794728 (src/OPENMP/bond_fene_omp.cpp:116)
WARNING: FENE bond too long: 127 382727 382724 1.4303074 (src/OPENMP/bond_fene_omp.cpp:116)
WARNING: FENE bond too long: 127 161639 161742 1.4591104 (src/OPENMP/bond_fene_omp.cpp:116)
WARNING: FENE bond too long: 127 51815 51716 1.4718347 (src/OPENMP/bond_fene_omp.cpp:116)
WARNING: FENE bond too long: 127 246179 246178 1.5046673 (src/OPENMP/bond_fene_omp.cpp:116)
WARNING: FENE bond too long: 128 16360 16364 1.4403647 (src/OPENMP/bond_fene_omp.cpp:116)
WARNING: FENE bond too long: 128 16317 16323 1.4823276 (src/OPENMP/bond_fene_omp.cpp:116)
WARNING: FENE bond too long: 128 382727 382724 1.4401883 (src/OPENMP/bond_fene_omp.cpp:116)
WARNING: FENE bond too long: 128 51815 51716 1.4443442 (src/OPENMP/bond_fene_omp.cpp:116)
WARNING: FENE bond too long: 128 161639 161742 1.4536932 (src/OPENMP/bond_fene_omp.cpp:116)
WARNING: FENE bond too long: 128 51816 51815 1.424792 (src/OPENMP/bond_fene_omp.cpp:116)
WARNING: FENE bond too long: 128 246179 246178 1.5418739 (src/OPENMP/bond_fene_omp.cpp:116)
WARNING: FENE bond too long: 129 16360 16364 1.4385476 (src/OPENMP/bond_fene_omp.cpp:116)
WARNING: FENE bond too long: 129 16317 16323 1.4771817 (src/OPENMP/bond_fene_omp.cpp:116)
WARNING: FENE bond too long: 129 161639 161742 1.4403977 (src/OPENMP/bond_fene_omp.cpp:116)
WARNING: FENE bond too long: 129 382727 382724 1.4434789 (src/OPENMP/bond_fene_omp.cpp:116)
WARNING: FENE bond too long: 129 246179 246178 1.5723358 (src/OPENMP/bond_fene_omp.cpp:116)
WARNING: FENE bond too long: 130 16360 16364 1.4277366 (src/OPENMP/bond_fene_omp.cpp:116)
WARNING: FENE bond too long: 130 16317 16323 1.4650515 (src/OPENMP/bond_fene_omp.cpp:116)
WARNING: FENE bond too long: 130 382727 382724 1.4399431 (src/OPENMP/bond_fene_omp.cpp:116)
WARNING: FENE bond too long: 130 246179 246178 1.5937469 (src/OPENMP/bond_fene_omp.cpp:116)
WARNING: FENE bond too long: 131 16317 16323 1.4471845 (src/OPENMP/bond_fene_omp.cpp:116)
WARNING: FENE bond too long: 131 5616 5622 1.4465372 (src/OPENMP/bond_fene_omp.cpp:116)
WARNING: FENE bond too long: 131 382727 382724 1.4300667 (src/OPENMP/bond_fene_omp.cpp:116)
WARNING: FENE bond too long: 131 395742 395691 1.4270598 (src/OPENMP/bond_fene_omp.cpp:116)
WARNING: FENE bond too long: 131 246179 246178 1.6037967 (src/OPENMP/bond_fene_omp.cpp:116)
WARNING: FENE bond too long: 132 16317 16323 1.4250409 (src/OPENMP/bond_fene_omp.cpp:116)
WARNING: FENE bond too long: 132 244965 244964 1.4262944 (src/OPENMP/bond_fene_omp.cpp:116)
WARNING: FENE bond too long: 132 5616 5622 1.4730547 (src/OPENMP/bond_fene_omp.cpp:116)
WARNING: FENE bond too long: 132 10319 10309 1.4413939 (src/OPENMP/bond_fene_omp.cpp:116)
WARNING: FENE bond too long: 132 270366 270367 1.4414685 (src/OPENMP/bond_fene_omp.cpp:116)
WARNING: FENE bond too long: 132 395742 395691 1.4370621 (src/OPENMP/bond_fene_omp.cpp:116)
WARNING: FENE bond too long: 132 246179 246178 1.5996756 (src/OPENMP/bond_fene_omp.cpp:116)
WARNING: FENE bond too long: 133 244965 244964 1.4459951 (src/OPENMP/bond_fene_omp.cpp:116)
WARNING: FENE bond too long: 133 5616 5622 1.4934967 (src/OPENMP/bond_fene_omp.cpp:116)
WARNING: FENE bond too long: 133 10319 10309 1.4801211 (src/OPENMP/bond_fene_omp.cpp:116)
WARNING: FENE bond too long: 133 270366 270367 1.470038 (src/OPENMP/bond_fene_omp.cpp:116)
WARNING: FENE bond too long: 133 395742 395691 1.4413785 (src/OPENMP/bond_fene_omp.cpp:116)
WARNING: FENE bond too long: 133 136422 136435 1.4395286 (src/OPENMP/bond_fene_omp.cpp:116)
WARNING: FENE bond too long: 133 246179 246178 1.578741 (src/OPENMP/bond_fene_omp.cpp:116)
WARNING: FENE bond too long: 133 22494 22406 1.4294076 (src/OPENMP/bond_fene_omp.cpp:116)
WARNING: FENE bond too long: 134 244965 244964 1.457369 (src/OPENMP/bond_fene_omp.cpp:116)
WARNING: FENE bond too long: 134 10319 10309 1.5127027 (src/OPENMP/bond_fene_omp.cpp:116)
WARNING: FENE bond too long: 134 16475 16483 1.4326673 (src/OPENMP/bond_fene_omp.cpp:116)
WARNING: FENE bond too long: 134 5616 5622 1.5067151 (src/OPENMP/bond_fene_omp.cpp:116)
WARNING: FENE bond too long: 134 270366 270367 1.4881818 (src/OPENMP/bond_fene_omp.cpp:116)
WARNING: FENE bond too long: 134 395742 395691 1.439659 (src/OPENMP/bond_fene_omp.cpp:116)
WARNING: FENE bond too long: 134 270038 270101 1.4246166 (src/OPENMP/bond_fene_omp.cpp:116)
WARNING: FENE bond too long: 134 136422 136435 1.4530563 (src/OPENMP/bond_fene_omp.cpp:116)
WARNING: FENE bond too long: 134 246179 246178 1.5411845 (src/OPENMP/bond_fene_omp.cpp:116)
WARNING: FENE bond too long: 134 22494 22406 1.4492654 (src/OPENMP/bond_fene_omp.cpp:116)
WARNING: FENE bond too long: 135 244965 244964 1.4610302 (src/OPENMP/bond_fene_omp.cpp:116)
WARNING: FENE bond too long: 135 5616 5622 1.5119185 (src/OPENMP/bond_fene_omp.cpp:116)
WARNING: FENE bond too long: 135 10319 10309 1.5370553 (src/OPENMP/bond_fene_omp.cpp:116)
WARNING: FENE bond too long: 135 16475 16483 1.4687691 (src/OPENMP/bond_fene_omp.cpp:116)
WARNING: FENE bond too long: 135 270366 270367 1.4941332 (src/OPENMP/bond_fene_omp.cpp:116)
WARNING: FENE bond too long: 135 395742 395691 1.4319072 (src/OPENMP/bond_fene_omp.cpp:116)
WARNING: FENE bond too long: 135 270038 270101 1.4495265 (src/OPENMP/bond_fene_omp.cpp:116)
WARNING: FENE bond too long: 135 136422 136435 1.4619869 (src/OPENMP/bond_fene_omp.cpp:116)
WARNING: FENE bond too long: 135 246179 246178 1.4913126 (src/OPENMP/bond_fene_omp.cpp:116)
WARNING: FENE bond too long: 135 22494 22406 1.4650819 (src/OPENMP/bond_fene_omp.cpp:116)
WARNING: FENE bond too long: 136 16475 16483 1.4972172 (src/OPENMP/bond_fene_omp.cpp:116)
WARNING: FENE bond too long: 136 5616 5622 1.5087414 (src/OPENMP/bond_fene_omp.cpp:116)
WARNING: FENE bond too long: 136 10319 10309 1.5514451 (src/OPENMP/bond_fene_omp.cpp:116)
WARNING: FENE bond too long: 136 244965 244964 1.4579506 (src/OPENMP/bond_fene_omp.cpp:116)
WARNING: FENE bond too long: 136 22494 22406 1.4761738 (src/OPENMP/bond_fene_omp.cpp:116)
WARNING: FENE bond too long: 136 270366 270367 1.4888674 (src/OPENMP/bond_fene_omp.cpp:116)
WARNING: FENE bond too long: 136 270038 270101 1.4702 (src/OPENMP/bond_fene_omp.cpp:116)
WARNING: FENE bond too long: 136 136422 136435 1.4659477 (src/OPENMP/bond_fene_omp.cpp:116)
WARNING: FENE bond too long: 136 136859 136858 1.4299742 (src/OPENMP/bond_fene_omp.cpp:116)
WARNING: FENE bond too long: 136 246179 246178 1.4349175 (src/OPENMP/bond_fene_omp.cpp:116)
WARNING: FENE bond too long: 137 22494 22406 1.4821047 (src/OPENMP/bond_fene_omp.cpp:116)
WARNING: FENE bond too long: 137 16475 16483 1.5160091 (src/OPENMP/bond_fene_omp.cpp:116)
WARNING: FENE bond too long: 137 10319 10309 1.5544935 (src/OPENMP/bond_fene_omp.cpp:116)
WARNING: FENE bond too long: 137 5616 5622 1.4973466 (src/OPENMP/bond_fene_omp.cpp:116)
WARNING: FENE bond too long: 137 244965 244964 1.449192 (src/OPENMP/bond_fene_omp.cpp:116)
WARNING: FENE bond too long: 137 270366 270367 1.4744953 (src/OPENMP/bond_fene_omp.cpp:116)
WARNING: FENE bond too long: 137 270038 270101 1.4854544 (src/OPENMP/bond_fene_omp.cpp:116)
WARNING: FENE bond too long: 137 136422 136435 1.4648438 (src/OPENMP/bond_fene_omp.cpp:116)
WARNING: FENE bond too long: 137 136859 136858 1.4429745 (src/OPENMP/bond_fene_omp.cpp:116)
WARNING: FENE bond too long: 138 22494 22406 1.4826586 (src/OPENMP/bond_fene_omp.cpp:116)
WARNING: FENE bond too long: 138 244965 244964 1.435829 (src/OPENMP/bond_fene_omp.cpp:116)
WARNING: FENE bond too long: 138 5616 5622 1.478497 (src/OPENMP/bond_fene_omp.cpp:116)
WARNING: FENE bond too long: 138 10319 10309 1.5454062 (src/OPENMP/bond_fene_omp.cpp:116)
WARNING: FENE bond too long: 138 16475 16483 1.5238671 (src/OPENMP/bond_fene_omp.cpp:116)
WARNING: FENE bond too long: 138 270366 270367 1.4530437 (src/OPENMP/bond_fene_omp.cpp:116)
WARNING: FENE bond too long: 138 161742 161732 1.4310723 (src/OPENMP/bond_fene_omp.cpp:116)
WARNING: FENE bond too long: 138 270038 270101 1.4943515 (src/OPENMP/bond_fene_omp.cpp:116)
WARNING: FENE bond too long: 138 136422 136435 1.4588758 (src/OPENMP/bond_fene_omp.cpp:116)
WARNING: FENE bond too long: 138 136859 136858 1.4517341 (src/OPENMP/bond_fene_omp.cpp:116)
WARNING: FENE bond too long: 139 22494 22406 1.4779943 (src/OPENMP/bond_fene_omp.cpp:116)
WARNING: FENE bond too long: 139 10319 10309 1.5242803 (src/OPENMP/bond_fene_omp.cpp:116)
WARNING: FENE bond too long: 139 16475 16483 1.5204652 (src/OPENMP/bond_fene_omp.cpp:116)
WARNING: FENE bond too long: 139 16360 16364 1.4412882 (src/OPENMP/bond_fene_omp.cpp:116)
WARNING: FENE bond too long: 139 5616 5622 1.453502 (src/OPENMP/bond_fene_omp.cpp:116)
WARNING: FENE bond too long: 139 270366 270367 1.4265362 (src/OPENMP/bond_fene_omp.cpp:116)
WARNING: FENE bond too long: 139 161742 161732 1.4402229 (src/OPENMP/bond_fene_omp.cpp:116)
WARNING: FENE bond too long: 139 270038 270101 1.4963264 (src/OPENMP/bond_fene_omp.cpp:116)
WARNING: FENE bond too long: 139 51816 51815 1.4291556 (src/OPENMP/bond_fene_omp.cpp:116)
WARNING: FENE bond too long: 139 136422 136435 1.4485137 (src/OPENMP/bond_fene_omp.cpp:116)
WARNING: FENE bond too long: 139 136859 136858 1.4557308 (src/OPENMP/bond_fene_omp.cpp:116)
WARNING: FENE bond too long: 140 5616 5622 1.4241008 (src/OPENMP/bond_fene_omp.cpp:116)
WARNING: FENE bond too long: 140 16475 16483 1.5064305 (src/OPENMP/bond_fene_omp.cpp:116)
WARNING: FENE bond too long: 140 16360 16364 1.4675142 (src/OPENMP/bond_fene_omp.cpp:116)
WARNING: FENE bond too long: 140 16317 16323 1.4349321 (src/OPENMP/bond_fene_omp.cpp:116)
WARNING: FENE bond too long: 140 22494 22406 1.4685399 (src/OPENMP/bond_fene_omp.cpp:116)
WARNING: FENE bond too long: 140 10319 10309 1.4923738 (src/OPENMP/bond_fene_omp.cpp:116)
WARNING: FENE bond too long: 140 270038 270101 1.4912403 (src/OPENMP/bond_fene_omp.cpp:116)
WARNING: FENE bond too long: 140 51816 51815 1.4348997 (src/OPENMP/bond_fene_omp.cpp:116)
WARNING: FENE bond too long: 140 161742 161732 1.4393838 (src/OPENMP/bond_fene_omp.cpp:116)
WARNING: FENE bond too long: 140 136422 136435 1.434494 (src/OPENMP/bond_fene_omp.cpp:116)
WARNING: FENE bond too long: 140 136859 136858 1.4546671 (src/OPENMP/bond_fene_omp.cpp:116)
WARNING: FENE bond too long: 141 22494 22406 1.4550467 (src/OPENMP/bond_fene_omp.cpp:116)
WARNING: FENE bond too long: 141 16475 16483 1.4831789 (src/OPENMP/bond_fene_omp.cpp:116)
WARNING: FENE bond too long: 141 16360 16364 1.4904426 (src/OPENMP/bond_fene_omp.cpp:116)
WARNING: FENE bond too long: 141 16317 16323 1.4573581 (src/OPENMP/bond_fene_omp.cpp:116)
WARNING: FENE bond too long: 141 10319 10309 1.4520492 (src/OPENMP/bond_fene_omp.cpp:116)
WARNING: FENE bond too long: 141 382727 382724 1.4385988 (src/OPENMP/bond_fene_omp.cpp:116)
WARNING: FENE bond too long: 141 270038 270101 1.4793986 (src/OPENMP/bond_fene_omp.cpp:116)
WARNING: FENE bond too long: 141 161742 161732 1.4280512 (src/OPENMP/bond_fene_omp.cpp:116)
WARNING: FENE bond too long: 141 51815 51716 1.4394483 (src/OPENMP/bond_fene_omp.cpp:116)
WARNING: FENE bond too long: 141 51816 51815 1.4329177 (src/OPENMP/bond_fene_omp.cpp:116)
WARNING: FENE bond too long: 141 136859 136858 1.4484919 (src/OPENMP/bond_fene_omp.cpp:116)
WARNING: FENE bond too long: 142 22494 22406 1.4384565 (src/OPENMP/bond_fene_omp.cpp:116)
WARNING: FENE bond too long: 142 16475 16483 1.4526962 (src/OPENMP/bond_fene_omp.cpp:116)
WARNING: FENE bond too long: 142 16360 16364 1.5088403 (src/OPENMP/bond_fene_omp.cpp:116)
WARNING: FENE bond too long: 142 16317 16323 1.4754555 (src/OPENMP/bond_fene_omp.cpp:116)
WARNING: FENE bond too long: 142 382727 382724 1.4533597 (src/OPENMP/bond_fene_omp.cpp:116)
WARNING: FENE bond too long: 142 270038 270101 1.4615615 (src/OPENMP/bond_fene_omp.cpp:116)
WARNING: FENE bond too long: 142 51815 51716 1.4647967 (src/OPENMP/bond_fene_omp.cpp:116)
WARNING: FENE bond too long: 142 136859 136858 1.4374643 (src/OPENMP/bond_fene_omp.cpp:116)
WARNING: FENE bond too long: 143 16360 16364 1.5218348 (src/OPENMP/bond_fene_omp.cpp:116)
WARNING: FENE bond too long: 143 16317 16323 1.4879248 (src/OPENMP/bond_fene_omp.cpp:116)
WARNING: FENE bond too long: 143 382727 382724 1.4640965 (src/OPENMP/bond_fene_omp.cpp:116)
WARNING: FENE bond too long: 143 270038 270101 1.4389094 (src/OPENMP/bond_fene_omp.cpp:116)
WARNING: FENE bond too long: 143 51815 51716 1.4785182 (src/OPENMP/bond_fene_omp.cpp:116)
WARNING: FENE bond too long: 144 16360 16364 1.5288316 (src/OPENMP/bond_fene_omp.cpp:116)
WARNING: FENE bond too long: 144 16317 16323 1.493793 (src/OPENMP/bond_fene_omp.cpp:116)
WARNING: FENE bond too long: 144 51815 51716 1.4822416 (src/OPENMP/bond_fene_omp.cpp:116)
WARNING: FENE bond too long: 144 382727 382724 1.4702476 (src/OPENMP/bond_fene_omp.cpp:116)
WARNING: FENE bond too long: 144 246179 246178 1.4424808 (src/OPENMP/bond_fene_omp.cpp:116)
WARNING: FENE bond too long: 145 16360 16364 1.529531 (src/OPENMP/bond_fene_omp.cpp:116)
WARNING: FENE bond too long: 145 16317 16323 1.4925549 (src/OPENMP/bond_fene_omp.cpp:116)
WARNING: FENE bond too long: 145 395742 395691 1.438923 (src/OPENMP/bond_fene_omp.cpp:116)
WARNING: FENE bond too long: 145 382727 382724 1.4716138 (src/OPENMP/bond_fene_omp.cpp:116)
WARNING: FENE bond too long: 145 51815 51716 1.4776535 (src/OPENMP/bond_fene_omp.cpp:116)
WARNING: FENE bond too long: 145 246179 246178 1.5014439 (src/OPENMP/bond_fene_omp.cpp:116)
WARNING: FENE bond too long: 146 16360 16364 1.52401 (src/OPENMP/bond_fene_omp.cpp:116)
WARNING: FENE bond too long: 146 16317 16323 1.4842851 (src/OPENMP/bond_fene_omp.cpp:116)
WARNING: FENE bond too long: 146 382727 382724 1.4681803 (src/OPENMP/bond_fene_omp.cpp:116)
WARNING: FENE bond too long: 146 395742 395691 1.4616546 (src/OPENMP/bond_fene_omp.cpp:116)
WARNING: FENE bond too long: 146 51815 51716 1.4663262 (src/OPENMP/bond_fene_omp.cpp:116)
WARNING: FENE bond too long: 146 246179 246178 1.5577607 (src/OPENMP/bond_fene_omp.cpp:116)
WARNING: FENE bond too long: 147 16360 16364 1.5126686 (src/OPENMP/bond_fene_omp.cpp:116)
WARNING: FENE bond too long: 147 16317 16323 1.4696477 (src/OPENMP/bond_fene_omp.cpp:116)
WARNING: FENE bond too long: 147 270366 270367 1.4322182 (src/OPENMP/bond_fene_omp.cpp:116)
WARNING: FENE bond too long: 147 395742 395691 1.4811453 (src/OPENMP/bond_fene_omp.cpp:116)
WARNING: FENE bond too long: 147 382727 382724 1.4602504 (src/OPENMP/bond_fene_omp.cpp:116)
WARNING: FENE bond too long: 147 51815 51716 1.4497088 (src/OPENMP/bond_fene_omp.cpp:116)
WARNING: FENE bond too long: 147 244812 244965 1.4412902 (src/OPENMP/bond_fene_omp.cpp:116)
WARNING: FENE bond too long: 147 246179 246178 1.6080692 (src/OPENMP/bond_fene_omp.cpp:116)
WARNING: FENE bond too long: 148 16360 16364 1.4962131 (src/OPENMP/bond_fene_omp.cpp:116)
WARNING: FENE bond too long: 148 16317 16323 1.4497848 (src/OPENMP/bond_fene_omp.cpp:116)
WARNING: FENE bond too long: 148 5616 5622 1.440739 (src/OPENMP/bond_fene_omp.cpp:116)
WARNING: FENE bond too long: 148 270366 270367 1.4567854 (src/OPENMP/bond_fene_omp.cpp:116)
WARNING: FENE bond too long: 148 51815 51716 1.4291475 (src/OPENMP/bond_fene_omp.cpp:116)
WARNING: FENE bond too long: 148 395742 395691 1.4964026 (src/OPENMP/bond_fene_omp.cpp:116)
WARNING: FENE bond too long: 148 382727 382724 1.448338 (src/OPENMP/bond_fene_omp.cpp:116)
WARNING: FENE bond too long: 148 136422 136435 1.4242489 (src/OPENMP/bond_fene_omp.cpp:116)
WARNING: FENE bond too long: 148 244812 244965 1.4523304 (src/OPENMP/bond_fene_omp.cpp:116)
WARNING: FENE bond too long: 148 246179 246178 1.6489291 (src/OPENMP/bond_fene_omp.cpp:116)
WARNING: FENE bond too long: 149 16360 16364 1.4756347 (src/OPENMP/bond_fene_omp.cpp:116)
WARNING: FENE bond too long: 149 16317 16323 1.4262379 (src/OPENMP/bond_fene_omp.cpp:116)
WARNING: FENE bond too long: 149 5616 5622 1.4725199 (src/OPENMP/bond_fene_omp.cpp:116)
WARNING: FENE bond too long: 149 270366 270367 1.4744136 (src/OPENMP/bond_fene_omp.cpp:116)
WARNING: FENE bond too long: 149 395742 395691 1.5065627 (src/OPENMP/bond_fene_omp.cpp:116)
WARNING: FENE bond too long: 149 382727 382724 1.4331885 (src/OPENMP/bond_fene_omp.cpp:116)
WARNING: FENE bond too long: 149 136422 136435 1.4348202 (src/OPENMP/bond_fene_omp.cpp:116)
WARNING: FENE bond too long: 149 244812 244965 1.4508249 (src/OPENMP/bond_fene_omp.cpp:116)
WARNING: FENE bond too long: 149 246179 246178 1.6770604 (src/OPENMP/bond_fene_omp.cpp:116)
WARNING: FENE bond too long: 150 5616 5622 1.5003217 (src/OPENMP/bond_fene_omp.cpp:116)
WARNING: FENE bond too long: 150 10319 10309 1.4501609 (src/OPENMP/bond_fene_omp.cpp:116)
WARNING: FENE bond too long: 150 16360 16364 1.4522221 (src/OPENMP/bond_fene_omp.cpp:116)
WARNING: FENE bond too long: 150 270366 270367 1.4831103 (src/OPENMP/bond_fene_omp.cpp:116)
WARNING: FENE bond too long: 150 395742 395691 1.5109608 (src/OPENMP/bond_fene_omp.cpp:116)
WARNING: FENE bond too long: 150 136422 136435 1.4372095 (src/OPENMP/bond_fene_omp.cpp:116)
WARNING: FENE bond too long: 150 244812 244965 1.4376934 (src/OPENMP/bond_fene_omp.cpp:116)
WARNING: FENE bond too long: 150 246179 246178 1.6895406 (src/OPENMP/bond_fene_omp.cpp:116)
WARNING: FENE bond too long: 151 22494 22406 1.4277816 (src/OPENMP/bond_fene_omp.cpp:116)
WARNING: FENE bond too long: 151 10319 10309 1.4991228 (src/OPENMP/bond_fene_omp.cpp:116)
WARNING: FENE bond too long: 151 16475 16483 1.4380906 (src/OPENMP/bond_fene_omp.cpp:116)
WARNING: FENE bond too long: 151 16360 16364 1.4274233 (src/OPENMP/bond_fene_omp.cpp:116)
WARNING: FENE bond too long: 151 5616 5622 1.5224246 (src/OPENMP/bond_fene_omp.cpp:116)
WARNING: FENE bond too long: 151 270366 270367 1.4822875 (src/OPENMP/bond_fene_omp.cpp:116)
WARNING: FENE bond too long: 151 161639 161742 1.4279114 (src/OPENMP/bond_fene_omp.cpp:116)
WARNING: FENE bond too long: 151 395742 395691 1.5091802 (src/OPENMP/bond_fene_omp.cpp:116)
WARNING: FENE bond too long: 151 270038 270101 1.4301407 (src/OPENMP/bond_fene_omp.cpp:116)
WARNING: FENE bond too long: 151 136422 136435 1.4308439 (src/OPENMP/bond_fene_omp.cpp:116)
WARNING: FENE bond too long: 151 136859 136858 1.428187 (src/OPENMP/bond_fene_omp.cpp:116)
WARNING: FENE bond too long: 151 246179 246178 1.6842648 (src/OPENMP/bond_fene_omp.cpp:116)
WARNING: FENE bond too long: 152 16475 16483 1.4712922 (src/OPENMP/bond_fene_omp.cpp:116)
WARNING: FENE bond too long: 152 5616 5622 1.537456 (src/OPENMP/bond_fene_omp.cpp:116)
WARNING: FENE bond too long: 152 22494 22406 1.4259745 (src/OPENMP/bond_fene_omp.cpp:116)
WARNING: FENE bond too long: 152 10319 10309 1.5430853 (src/OPENMP/bond_fene_omp.cpp:116)
WARNING: FENE bond too long: 152 270366 270367 1.4729024 (src/OPENMP/bond_fene_omp.cpp:116)
WARNING: FENE bond too long: 152 161639 161742 1.4313494 (src/OPENMP/bond_fene_omp.cpp:116)
WARNING: FENE bond too long: 152 270038 270101 1.4584555 (src/OPENMP/bond_fene_omp.cpp:116)
WARNING: FENE bond too long: 152 161742 161732 1.4372045 (src/OPENMP/bond_fene_omp.cpp:116)
WARNING: FENE bond too long: 152 395742 395691 1.5011572 (src/OPENMP/bond_fene_omp.cpp:116)
WARNING: FENE bond too long: 152 136859 136858 1.4453777 (src/OPENMP/bond_fene_omp.cpp:116)
WARNING: FENE bond too long: 152 246179 246178 1.6607341 (src/OPENMP/bond_fene_omp.cpp:116)
WARNING: FENE bond too long: 153 161639 161742 1.4263215 (src/OPENMP/bond_fene_omp.cpp:116)
WARNING: FENE bond too long: 153 270366 270367 1.456874 (src/OPENMP/bond_fene_omp.cpp:116)
WARNING: FENE bond too long: 153 10319 10309 1.5793526 (src/OPENMP/bond_fene_omp.cpp:116)
WARNING: FENE bond too long: 153 16475 16483 1.497721 (src/OPENMP/bond_fene_omp.cpp:116)
WARNING: FENE bond too long: 153 395742 395691 1.4871962 (src/OPENMP/bond_fene_omp.cpp:116)
WARNING: FENE bond too long: 153 5616 5622 1.5444773 (src/OPENMP/bond_fene_omp.cpp:116)
WARNING: FENE bond too long: 153 161742 161732 1.4498817 (src/OPENMP/bond_fene_omp.cpp:116)
WARNING: FENE bond too long: 153 270038 270101 1.4843504 (src/OPENMP/bond_fene_omp.cpp:116)
WARNING: FENE bond too long: 153 51816 51815 1.426613 (src/OPENMP/bond_fene_omp.cpp:116)
WARNING: FENE bond too long: 153 136859 136858 1.4592114 (src/OPENMP/bond_fene_omp.cpp:116)
WARNING: FENE bond too long: 153 246179 246178 1.6206539 (src/OPENMP/bond_fene_omp.cpp:116)
WARNING: FENE bond too long: 154 10319 10309 1.6057749 (src/OPENMP/bond_fene_omp.cpp:116)
WARNING: FENE bond too long: 154 5616 5622 1.5430511 (src/OPENMP/bond_fene_omp.cpp:116)
WARNING: FENE bond too long: 154 16475 16483 1.5152786 (src/OPENMP/bond_fene_omp.cpp:116)
WARNING: FENE bond too long: 154 270366 270367 1.4364376 (src/OPENMP/bond_fene_omp.cpp:116)
WARNING: FENE bond too long: 154 270038 270101 1.5062032 (src/OPENMP/bond_fene_omp.cpp:116)
WARNING: FENE bond too long: 154 395742 395691 1.4679986 (src/OPENMP/bond_fene_omp.cpp:116)
WARNING: FENE bond too long: 154 51816 51815 1.4574288 (src/OPENMP/bond_fene_omp.cpp:116)
WARNING: FENE bond too long: 154 161742 161732 1.4538856 (src/OPENMP/bond_fene_omp.cpp:116)
WARNING: FENE bond too long: 154 136859 136858 1.4690319 (src/OPENMP/bond_fene_omp.cpp:116)
WARNING: FENE bond too long: 154 246179 246178 1.5675544 (src/OPENMP/bond_fene_omp.cpp:116)
WARNING: FENE bond too long: 155 10319 10309 1.6208279 (src/OPENMP/bond_fene_omp.cpp:116)
WARNING: FENE bond too long: 155 5616 5622 1.5332657 (src/OPENMP/bond_fene_omp.cpp:116)
WARNING: FENE bond too long: 155 16475 16483 1.5229239 (src/OPENMP/bond_fene_omp.cpp:116)
WARNING: FENE bond too long: 155 395742 395691 1.444658 (src/OPENMP/bond_fene_omp.cpp:116)
WARNING: FENE bond too long: 155 270038 270101 1.5226022 (src/OPENMP/bond_fene_omp.cpp:116)
WARNING: FENE bond too long: 155 51816 51815 1.4813187 (src/OPENMP/bond_fene_omp.cpp:116)
WARNING: FENE bond too long: 155 161742 161732 1.450216 (src/OPENMP/bond_fene_omp.cpp:116)
WARNING: FENE bond too long: 155 136859 136858 1.4744321 (src/OPENMP/bond_fene_omp.cpp:116)
WARNING: FENE bond too long: 155 246179 246178 1.5059865 (src/OPENMP/bond_fene_omp.cpp:116)
WARNING: FENE bond too long: 156 16475 16483 1.5207763 (src/OPENMP/bond_fene_omp.cpp:116)
WARNING: FENE bond too long: 156 5616 5622 1.5157463 (src/OPENMP/bond_fene_omp.cpp:116)
WARNING: FENE bond too long: 156 10319 10309 1.6237063 (src/OPENMP/bond_fene_omp.cpp:116)
WARNING: FENE bond too long: 156 270038 270101 1.5325736 (src/OPENMP/bond_fene_omp.cpp:116)
WARNING: FENE bond too long: 156 51816 51815 1.4961596 (src/OPENMP/bond_fene_omp.cpp:116)
WARNING: FENE bond too long: 156 161742 161732 1.4405988 (src/OPENMP/bond_fene_omp.cpp:116)
WARNING: FENE bond too long: 156 136859 136858 1.475235 (src/OPENMP/bond_fene_omp.cpp:116)
WARNING: FENE bond too long: 156 246179 246178 1.440781 (src/OPENMP/bond_fene_omp.cpp:116)
WARNING: FENE bond too long: 157 5616 5622 1.4916571 (src/OPENMP/bond_fene_omp.cpp:116)
WARNING: FENE bond too long: 157 10319 10309 1.61436 (src/OPENMP/bond_fene_omp.cpp:116)
WARNING: FENE bond too long: 157 16475 16483 1.5098237 (src/OPENMP/bond_fene_omp.cpp:116)
WARNING: FENE bond too long: 157 16317 16323 1.4484057 (src/OPENMP/bond_fene_omp.cpp:116)
WARNING: FENE bond too long: 157 270038 270101 1.5355461 (src/OPENMP/bond_fene_omp.cpp:116)
WARNING: FENE bond too long: 157 51816 51815 1.5001404 (src/OPENMP/bond_fene_omp.cpp:116)
WARNING: FENE bond too long: 157 161742 161732 1.4266918 (src/OPENMP/bond_fene_omp.cpp:116)
WARNING: FENE bond too long: 157 136859 136858 1.4716078 (src/OPENMP/bond_fene_omp.cpp:116)
WARNING: FENE bond too long: 158 16475 16483 1.4915438 (src/OPENMP/bond_fene_omp.cpp:116)
WARNING: FENE bond too long: 158 16317 16323 1.4717539 (src/OPENMP/bond_fene_omp.cpp:116)
WARNING: FENE bond too long: 158 244965 244964 1.4278951 (src/OPENMP/bond_fene_omp.cpp:116)
WARNING: FENE bond too long: 158 5616 5622 1.4626596 (src/OPENMP/bond_fene_omp.cpp:116)
WARNING: FENE bond too long: 158 10319 10309 1.5934624 (src/OPENMP/bond_fene_omp.cpp:116)
WARNING: FENE bond too long: 158 51816 51815 1.4920947 (src/OPENMP/bond_fene_omp.cpp:116)
WARNING: FENE bond too long: 158 270038 270101 1.5313506 (src/OPENMP/bond_fene_omp.cpp:116)
WARNING: FENE bond too long: 158 136859 136858 1.4639669 (src/OPENMP/bond_fene_omp.cpp:116)
WARNING: FENE bond too long: 159 244965 244964 1.4362916 (src/OPENMP/bond_fene_omp.cpp:116)
WARNING: FENE bond too long: 159 5616 5622 1.430767 (src/OPENMP/bond_fene_omp.cpp:116)
WARNING: FENE bond too long: 159 16475 16483 1.46768 (src/OPENMP/bond_fene_omp.cpp:116)
WARNING: FENE bond too long: 159 10319 10309 1.5624483 (src/OPENMP/bond_fene_omp.cpp:116)
WARNING: FENE bond too long: 159 270038 270101 1.5202554 (src/OPENMP/bond_fene_omp.cpp:116)
WARNING: FENE bond too long: 159 51816 51815 1.4718816 (src/OPENMP/bond_fene_omp.cpp:116)
WARNING: FENE bond too long: 159 136422 136435 1.4334076 (src/OPENMP/bond_fene_omp.cpp:116)
WARNING: FENE bond too long: 159 244812 244965 1.425702 (src/OPENMP/bond_fene_omp.cpp:116)
WARNING: FENE bond too long: 159 136859 136858 1.4529937 (src/OPENMP/bond_fene_omp.cpp:116)
WARNING: FENE bond too long: 160 10319 10309 1.523399 (src/OPENMP/bond_fene_omp.cpp:116)
WARNING: FENE bond too long: 160 22494 22406 1.4432438 (src/OPENMP/bond_fene_omp.cpp:116)
WARNING: FENE bond too long: 160 244965 244964 1.4326837 (src/OPENMP/bond_fene_omp.cpp:116)
WARNING: FENE bond too long: 160 270038 270101 1.5029517 (src/OPENMP/bond_fene_omp.cpp:116)
WARNING: FENE bond too long: 160 51816 51815 1.4407387 (src/OPENMP/bond_fene_omp.cpp:116)
WARNING: FENE bond too long: 160 136422 136435 1.4509682 (src/OPENMP/bond_fene_omp.cpp:116)
WARNING: FENE bond too long: 160 244812 244965 1.4430547 (src/OPENMP/bond_fene_omp.cpp:116)
WARNING: FENE bond too long: 160 136859 136858 1.4395866 (src/OPENMP/bond_fene_omp.cpp:116)
WARNING: FENE bond too long: 161 22494 22406 1.4681065 (src/OPENMP/bond_fene_omp.cpp:116)
WARNING: FENE bond too long: 161 10319 10309 1.4788859 (src/OPENMP/bond_fene_omp.cpp:116)
WARNING: FENE bond too long: 161 270366 270367 1.4279023 (src/OPENMP/bond_fene_omp.cpp:116)
WARNING: FENE bond too long: 161 270038 270101 1.480508 (src/OPENMP/bond_fene_omp.cpp:116)
WARNING: FENE bond too long: 161 136422 136435 1.4664542 (src/OPENMP/bond_fene_omp.cpp:116)
WARNING: FENE bond too long: 161 244812 244965 1.4530086 (src/OPENMP/bond_fene_omp.cpp:116)
WARNING: FENE bond too long: 161 136859 136858 1.4247985 (src/OPENMP/bond_fene_omp.cpp:116)
WARNING: FENE bond too long: 162 22494 22406 1.4916806 (src/OPENMP/bond_fene_omp.cpp:116)
WARNING: FENE bond too long: 162 10319 10309 1.4317988 (src/OPENMP/bond_fene_omp.cpp:116)
WARNING: FENE bond too long: 162 270366 270367 1.4526666 (src/OPENMP/bond_fene_omp.cpp:116)
WARNING: FENE bond too long: 162 270038 270101 1.4543746 (src/OPENMP/bond_fene_omp.cpp:116)
WARNING: FENE bond too long: 162 136422 136435 1.4788475 (src/OPENMP/bond_fene_omp.cpp:116)
WARNING: FENE bond too long: 162 244812 244965 1.4556771 (src/OPENMP/bond_fene_omp.cpp:116)
WARNING: FENE bond too long: 163 22494 22406 1.512429 (src/OPENMP/bond_fene_omp.cpp:116)
WARNING: FENE bond too long: 163 270366 270367 1.4764437 (src/OPENMP/bond_fene_omp.cpp:116)
WARNING: FENE bond too long: 163 270038 270101 1.4262331 (src/OPENMP/bond_fene_omp.cpp:116)
WARNING: FENE bond too long: 163 395742 395691 1.4285031 (src/OPENMP/bond_fene_omp.cpp:116)
WARNING: FENE bond too long: 163 136422 136435 1.4872976 (src/OPENMP/bond_fene_omp.cpp:116)
WARNING: FENE bond too long: 163 244812 244965 1.4526821 (src/OPENMP/bond_fene_omp.cpp:116)
WARNING: FENE bond too long: 164 22494 22406 1.5289595 (src/OPENMP/bond_fene_omp.cpp:116)
WARNING: FENE bond too long: 164 270366 270367 1.497683 (src/OPENMP/bond_fene_omp.cpp:116)
WARNING: FENE bond too long: 164 395742 395691 1.4562574 (src/OPENMP/bond_fene_omp.cpp:116)
WARNING: FENE bond too long: 164 136422 136435 1.4912471 (src/OPENMP/bond_fene_omp.cpp:116)
WARNING: FENE bond too long: 164 244812 244965 1.4452885 (src/OPENMP/bond_fene_omp.cpp:116)
WARNING: FENE bond too long: 164 246179 246178 1.4815765 (src/OPENMP/bond_fene_omp.cpp:116)
WARNING: FENE bond too long: 165 22494 22406 1.5401809 (src/OPENMP/bond_fene_omp.cpp:116)
WARNING: FENE bond too long: 165 270366 270367 1.5149403 (src/OPENMP/bond_fene_omp.cpp:116)
WARNING: FENE bond too long: 165 161639 161742 1.4335811 (src/OPENMP/bond_fene_omp.cpp:116)
WARNING: FENE bond too long: 165 395742 395691 1.4814562 (src/OPENMP/bond_fene_omp.cpp:116)
WARNING: FENE bond too long: 165 382727 382724 1.4339071 (src/OPENMP/bond_fene_omp.cpp:116)
WARNING: FENE bond too long: 165 136422 136435 1.4904958 (src/OPENMP/bond_fene_omp.cpp:116)
WARNING: FENE bond too long: 165 244812 244965 1.4344405 (src/OPENMP/bond_fene_omp.cpp:116)
WARNING: FENE bond too long: 165 246179 246178 1.5489192 (src/OPENMP/bond_fene_omp.cpp:116)
WARNING: FENE bond too long: 166 22494 22406 1.545301 (src/OPENMP/bond_fene_omp.cpp:116)
WARNING: FENE bond too long: 166 5616 5622 1.4257752 (src/OPENMP/bond_fene_omp.cpp:116)
WARNING: FENE bond too long: 166 270366 270367 1.5270164 (src/OPENMP/bond_fene_omp.cpp:116)
WARNING: FENE bond too long: 166 161639 161742 1.4403235 (src/OPENMP/bond_fene_omp.cpp:116)
WARNING: FENE bond too long: 166 161742 161732 1.4255155 (src/OPENMP/bond_fene_omp.cpp:116)
WARNING: FENE bond too long: 166 382727 382724 1.4459879 (src/OPENMP/bond_fene_omp.cpp:116)
WARNING: FENE bond too long: 166 395742 395691 1.5024927 (src/OPENMP/bond_fene_omp.cpp:116)
WARNING: FENE bond too long: 166 51815 51716 1.4231671 (src/OPENMP/bond_fene_omp.cpp:116)
WARNING: FENE bond too long: 166 136422 136435 1.4852349 (src/OPENMP/bond_fene_omp.cpp:116)
WARNING: FENE bond too long: 166 246179 246178 1.6116625 (src/OPENMP/bond_fene_omp.cpp:116)
WARNING: FENE bond too long: 167 22494 22406 1.5439366 (src/OPENMP/bond_fene_omp.cpp:116)
WARNING: FENE bond too long: 167 5616 5622 1.4583082 (src/OPENMP/bond_fene_omp.cpp:116)
WARNING: FENE bond too long: 167 161639 161742 1.4385689 (src/OPENMP/bond_fene_omp.cpp:116)
WARNING: FENE bond too long: 167 161742 161732 1.4256677 (src/OPENMP/bond_fene_omp.cpp:116)
WARNING: FENE bond too long: 167 270366 270367 1.5331018 (src/OPENMP/bond_fene_omp.cpp:116)
WARNING: FENE bond too long: 167 395742 395691 1.5180978 (src/OPENMP/bond_fene_omp.cpp:116)
WARNING: FENE bond too long: 167 382727 382724 1.4561842 (src/OPENMP/bond_fene_omp.cpp:116)
WARNING: FENE bond too long: 167 51815 51716 1.4352801 (src/OPENMP/bond_fene_omp.cpp:116)
WARNING: FENE bond too long: 167 136422 136435 1.4760304 (src/OPENMP/bond_fene_omp.cpp:116)
WARNING: FENE bond too long: 167 246179 246178 1.6655846 (src/OPENMP/bond_fene_omp.cpp:116)
WARNING: FENE bond too long: 168 5616 5622 1.488803 (src/OPENMP/bond_fene_omp.cpp:116)
WARNING: FENE bond too long: 168 22494 22406 1.5361826 (src/OPENMP/bond_fene_omp.cpp:116)
WARNING: FENE bond too long: 168 270366 270367 1.5328685 (src/OPENMP/bond_fene_omp.cpp:116)
WARNING: FENE bond too long: 168 161639 161742 1.4295243 (src/OPENMP/bond_fene_omp.cpp:116)
WARNING: FENE bond too long: 168 51815 51716 1.4452561 (src/OPENMP/bond_fene_omp.cpp:116)
WARNING: FENE bond too long: 168 395742 395691 1.5273422 (src/OPENMP/bond_fene_omp.cpp:116)
WARNING: FENE bond too long: 168 382727 382724 1.4639641 (src/OPENMP/bond_fene_omp.cpp:116)
WARNING: FENE bond too long: 168 136422 136435 1.4637747 (src/OPENMP/bond_fene_omp.cpp:116)
WARNING: FENE bond too long: 168 136859 136858 1.4340519 (src/OPENMP/bond_fene_omp.cpp:116)
WARNING: FENE bond too long: 168 246179 246178 1.7070616 (src/OPENMP/bond_fene_omp.cpp:116)
WARNING: FENE bond too long: 169 270366 270367 1.5265415 (src/OPENMP/bond_fene_omp.cpp:116)
WARNING: FENE bond too long: 169 22494 22406 1.5226518 (src/OPENMP/bond_fene_omp.cpp:116)
WARNING: FENE bond too long: 169 5616 5622 1.5152623 (src/OPENMP/bond_fene_omp.cpp:116)
WARNING: FENE bond too long: 169 382727 382724 1.4689609 (src/OPENMP/bond_fene_omp.cpp:116)
WARNING: FENE bond too long: 169 395742 395691 1.5297975 (src/OPENMP/bond_fene_omp.cpp:116)
WARNING: FENE bond too long: 169 51815 51716 1.4510971 (src/OPENMP/bond_fene_omp.cpp:116)
WARNING: FENE bond too long: 169 136422 136435 1.449594 (src/OPENMP/bond_fene_omp.cpp:116)
WARNING: FENE bond too long: 169 136859 136858 1.4455087 (src/OPENMP/bond_fene_omp.cpp:116)
WARNING: FENE bond too long: 169 246179 246178 1.7333607 (src/OPENMP/bond_fene_omp.cpp:116)
WARNING: FENE bond too long: 170 22494 22406 1.5043655 (src/OPENMP/bond_fene_omp.cpp:116)
WARNING: FENE bond too long: 170 270366 270367 1.5148062 (src/OPENMP/bond_fene_omp.cpp:116)
WARNING: FENE bond too long: 170 5616 5622 1.5358775 (src/OPENMP/bond_fene_omp.cpp:116)
WARNING: FENE bond too long: 170 10319 10309 1.4609953 (src/OPENMP/bond_fene_omp.cpp:116)
WARNING: FENE bond too long: 170 382727 382724 1.4710329 (src/OPENMP/bond_fene_omp.cpp:116)
WARNING: FENE bond too long: 170 395742 395691 1.5255825 (src/OPENMP/bond_fene_omp.cpp:116)
WARNING: FENE bond too long: 170 51815 51716 1.4503815 (src/OPENMP/bond_fene_omp.cpp:116)
WARNING: FENE bond too long: 170 51816 51815 1.4329808 (src/OPENMP/bond_fene_omp.cpp:116)
WARNING: FENE bond too long: 170 136422 136435 1.4347769 (src/OPENMP/bond_fene_omp.cpp:116)
WARNING: FENE bond too long: 170 136859 136858 1.451958 (src/OPENMP/bond_fene_omp.cpp:116)
WARNING: FENE bond too long: 170 246179 246178 1.7429588 (src/OPENMP/bond_fene_omp.cpp:116)
WARNING: FENE bond too long: 171 244965 244964 1.4558844 (src/OPENMP/bond_fene_omp.cpp:116)
WARNING: FENE bond too long: 171 22494 22406 1.4827729 (src/OPENMP/bond_fene_omp.cpp:116)
WARNING: FENE bond too long: 171 10319 10309 1.4984242 (src/OPENMP/bond_fene_omp.cpp:116)
WARNING: FENE bond too long: 171 5616 5622 1.5491981 (src/OPENMP/bond_fene_omp.cpp:116)
WARNING: FENE bond too long: 171 270366 270367 1.4987224 (src/OPENMP/bond_fene_omp.cpp:116)
WARNING: FENE bond too long: 171 395742 395691 1.5153243 (src/OPENMP/bond_fene_omp.cpp:116)
WARNING: FENE bond too long: 171 382727 382724 1.4702891 (src/OPENMP/bond_fene_omp.cpp:116)
WARNING: FENE bond too long: 171 270038 270101 1.4434946 (src/OPENMP/bond_fene_omp.cpp:116)
WARNING: FENE bond too long: 171 51815 51716 1.441122 (src/OPENMP/bond_fene_omp.cpp:116)
WARNING: FENE bond too long: 171 51816 51815 1.4521399 (src/OPENMP/bond_fene_omp.cpp:116)
WARNING: FENE bond too long: 171 136859 136858 1.4511749 (src/OPENMP/bond_fene_omp.cpp:116)
WARNING: FENE bond too long: 171 246179 246178 1.735649 (src/OPENMP/bond_fene_omp.cpp:116)
WARNING: FENE bond too long: 172 244965 244964 1.4873937 (src/OPENMP/bond_fene_omp.cpp:116)
WARNING: FENE bond too long: 172 5616 5622 1.5542316 (src/OPENMP/bond_fene_omp.cpp:116)
WARNING: FENE bond too long: 172 22494 22406 1.4595115 (src/OPENMP/bond_fene_omp.cpp:116)
WARNING: FENE bond too long: 172 10319 10309 1.5236562 (src/OPENMP/bond_fene_omp.cpp:116)
WARNING: FENE bond too long: 172 270366 270367 1.4796209 (src/OPENMP/bond_fene_omp.cpp:116)
WARNING: FENE bond too long: 172 395742 395691 1.5001038 (src/OPENMP/bond_fene_omp.cpp:116)
WARNING: FENE bond too long: 172 382727 382724 1.4670625 (src/OPENMP/bond_fene_omp.cpp:116)
WARNING: FENE bond too long: 172 270038 270101 1.4595927 (src/OPENMP/bond_fene_omp.cpp:116)
WARNING: FENE bond too long: 172 51815 51716 1.4236988 (src/OPENMP/bond_fene_omp.cpp:116)
WARNING: FENE bond too long: 172 51816 51815 1.4589048 (src/OPENMP/bond_fene_omp.cpp:116)
WARNING: FENE bond too long: 172 136859 136858 1.4424626 (src/OPENMP/bond_fene_omp.cpp:116)
WARNING: FENE bond too long: 172 246179 246178 1.7125191 (src/OPENMP/bond_fene_omp.cpp:116)
WARNING: FENE bond too long: 173 5616 5622 1.5505534 (src/OPENMP/bond_fene_omp.cpp:116)
WARNING: FENE bond too long: 173 22494 22406 1.4363874 (src/OPENMP/bond_fene_omp.cpp:116)
WARNING: FENE bond too long: 173 244965 244964 1.5127566 (src/OPENMP/bond_fene_omp.cpp:116)
WARNING: FENE bond too long: 173 10319 10309 1.5338869 (src/OPENMP/bond_fene_omp.cpp:116)
WARNING: FENE bond too long: 173 270366 270367 1.459046 (src/OPENMP/bond_fene_omp.cpp:116)
WARNING: FENE bond too long: 173 270038 270101 1.4714726 (src/OPENMP/bond_fene_omp.cpp:116)
WARNING: FENE bond too long: 173 51816 51815 1.4547695 (src/OPENMP/bond_fene_omp.cpp:116)
WARNING: FENE bond too long: 173 395742 395691 1.4812961 (src/OPENMP/bond_fene_omp.cpp:116)
WARNING: FENE bond too long: 173 382727 382724 1.4618711 (src/OPENMP/bond_fene_omp.cpp:116)
WARNING: FENE bond too long: 173 136859 136858 1.4275652 (src/OPENMP/bond_fene_omp.cpp:116)
WARNING: FENE bond too long: 173 246179 246178 1.6757026 (src/OPENMP/bond_fene_omp.cpp:116)
WARNING: FENE bond too long: 174 244965 244964 1.5305232 (src/OPENMP/bond_fene_omp.cpp:116)
WARNING: FENE bond too long: 174 10319 10309 1.5307609 (src/OPENMP/bond_fene_omp.cpp:116)
WARNING: FENE bond too long: 174 270366 270367 1.4385864 (src/OPENMP/bond_fene_omp.cpp:116)
WARNING: FENE bond too long: 174 5616 5622 1.5383793 (src/OPENMP/bond_fene_omp.cpp:116)
WARNING: FENE bond too long: 174 382727 382724 1.4553512 (src/OPENMP/bond_fene_omp.cpp:116)
WARNING: FENE bond too long: 174 395742 395691 1.4604602 (src/OPENMP/bond_fene_omp.cpp:116)
WARNING: FENE bond too long: 174 270038 270101 1.4798646 (src/OPENMP/bond_fene_omp.cpp:116)
WARNING: FENE bond too long: 174 51816 51815 1.4443369 (src/OPENMP/bond_fene_omp.cpp:116)
WARNING: FENE bond too long: 174 246179 246178 1.6281392 (src/OPENMP/bond_fene_omp.cpp:116)
WARNING: FENE bond too long: 175 244965 244964 1.5398251 (src/OPENMP/bond_fene_omp.cpp:116)
WARNING: FENE bond too long: 175 5616 5622 1.5185505 (src/OPENMP/bond_fene_omp.cpp:116)
WARNING: FENE bond too long: 175 10319 10309 1.5178522 (src/OPENMP/bond_fene_omp.cpp:116)
WARNING: FENE bond too long: 175 382727 382724 1.4481899 (src/OPENMP/bond_fene_omp.cpp:116)
WARNING: FENE bond too long: 175 395742 395691 1.4392127 (src/OPENMP/bond_fene_omp.cpp:116)
WARNING: FENE bond too long: 175 270038 270101 1.4853992 (src/OPENMP/bond_fene_omp.cpp:116)
WARNING: FENE bond too long: 175 51816 51815 1.431319 (src/OPENMP/bond_fene_omp.cpp:116)
WARNING: FENE bond too long: 175 246179 246178 1.5732907 (src/OPENMP/bond_fene_omp.cpp:116)
WARNING: FENE bond too long: 176 244965 244964 1.5404863 (src/OPENMP/bond_fene_omp.cpp:116)
WARNING: FENE bond too long: 176 5616 5622 1.4924452 (src/OPENMP/bond_fene_omp.cpp:116)
WARNING: FENE bond too long: 176 10319 10309 1.4985178 (src/OPENMP/bond_fene_omp.cpp:116)
WARNING: FENE bond too long: 176 161639 161742 1.4316667 (src/OPENMP/bond_fene_omp.cpp:116)
WARNING: FENE bond too long: 176 382727 382724 1.4410694 (src/OPENMP/bond_fene_omp.cpp:116)
WARNING: FENE bond too long: 176 270038 270101 1.488548 (src/OPENMP/bond_fene_omp.cpp:116)
WARNING: FENE bond too long: 176 136422 136435 1.4288715 (src/OPENMP/bond_fene_omp.cpp:116)
WARNING: FENE bond too long: 176 246179 246178 1.5149421 (src/OPENMP/bond_fene_omp.cpp:116)
WARNING: FENE bond too long: 177 5616 5622 1.4618919 (src/OPENMP/bond_fene_omp.cpp:116)
WARNING: FENE bond too long: 177 10319 10309 1.4754891 (src/OPENMP/bond_fene_omp.cpp:116)
WARNING: FENE bond too long: 177 244965 244964 1.5330852 (src/OPENMP/bond_fene_omp.cpp:116)
WARNING: FENE bond too long: 177 161742 161732 1.4232278 (src/OPENMP/bond_fene_omp.cpp:116)
WARNING: FENE bond too long: 177 161639 161742 1.4395587 (src/OPENMP/bond_fene_omp.cpp:116)
WARNING: FENE bond too long: 177 270038 270101 1.4896302 (src/OPENMP/bond_fene_omp.cpp:116)
WARNING: FENE bond too long: 177 382727 382724 1.4346512 (src/OPENMP/bond_fene_omp.cpp:116)
WARNING: FENE bond too long: 177 136422 136435 1.4449166 (src/OPENMP/bond_fene_omp.cpp:116)
WARNING: FENE bond too long: 177 246179 246178 1.4569895 (src/OPENMP/bond_fene_omp.cpp:116)
WARNING: FENE bond too long: 178 244965 244964 1.5188505 (src/OPENMP/bond_fene_omp.cpp:116)
WARNING: FENE bond too long: 178 10319 10309 1.4510973 (src/OPENMP/bond_fene_omp.cpp:116)
WARNING: FENE bond too long: 178 5616 5622 1.4290287 (src/OPENMP/bond_fene_omp.cpp:116)
WARNING: FENE bond too long: 178 161639 161742 1.4413421 (src/OPENMP/bond_fene_omp.cpp:116)
WARNING: FENE bond too long: 178 382727 382724 1.429542 (src/OPENMP/bond_fene_omp.cpp:116)
WARNING: FENE bond too long: 178 270038 270101 1.4889634 (src/OPENMP/bond_fene_omp.cpp:116)
WARNING: FENE bond too long: 178 136422 136435 1.4612824 (src/OPENMP/bond_fene_omp.cpp:116)
WARNING: FENE bond too long: 179 244965 244964 1.499326 (src/OPENMP/bond_fene_omp.cpp:116)
WARNING: FENE bond too long: 179 22494 22406 1.4334294 (src/OPENMP/bond_fene_omp.cpp:116)
WARNING: FENE bond too long: 179 10319 10309 1.4275252 (src/OPENMP/bond_fene_omp.cpp:116)
WARNING: FENE bond too long: 179 161639 161742 1.4372184 (src/OPENMP/bond_fene_omp.cpp:116)
WARNING: FENE bond too long: 179 382727 382724 1.4262521 (src/OPENMP/bond_fene_omp.cpp:116)
WARNING: FENE bond too long: 179 270038 270101 1.4868398 (src/OPENMP/bond_fene_omp.cpp:116)
WARNING: FENE bond too long: 179 136422 136435 1.4761883 (src/OPENMP/bond_fene_omp.cpp:116)
WARNING: FENE bond too long: 179 136859 136858 1.424787 (src/OPENMP/bond_fene_omp.cpp:116)
WARNING: FENE bond too long: 180 244965 244964 1.4760255 (src/OPENMP/bond_fene_omp.cpp:116)
WARNING: FENE bond too long: 180 22494 22406 1.4556939 (src/OPENMP/bond_fene_omp.cpp:116)
WARNING: FENE bond too long: 180 161639 161742 1.4284936 (src/OPENMP/bond_fene_omp.cpp:116)
WARNING: FENE bond too long: 180 270366 270367 1.4260364 (src/OPENMP/bond_fene_omp.cpp:116)
WARNING: FENE bond too long: 180 382727 382724 1.4251383 (src/OPENMP/bond_fene_omp.cpp:116)
WARNING: FENE bond too long: 180 270038 270101 1.4836203 (src/OPENMP/bond_fene_omp.cpp:116)
WARNING: FENE bond too long: 180 136422 136435 1.4875078 (src/OPENMP/bond_fene_omp.cpp:116)
WARNING: FENE bond too long: 180 136859 136858 1.447378 (src/OPENMP/bond_fene_omp.cpp:116)
WARNING: FENE bond too long: 181 22494 22406 1.476895 (src/OPENMP/bond_fene_omp.cpp:116)
WARNING: FENE bond too long: 181 244965 244964 1.4502304 (src/OPENMP/bond_fene_omp.cpp:116)
WARNING: FENE bond too long: 181 270366 270367 1.4404701 (src/OPENMP/bond_fene_omp.cpp:116)
WARNING: FENE bond too long: 181 270038 270101 1.4797068 (src/OPENMP/bond_fene_omp.cpp:116)
WARNING: FENE bond too long: 181 51816 51815 1.4361172 (src/OPENMP/bond_fene_omp.cpp:116)
WARNING: FENE bond too long: 181 395742 395691 1.4257278 (src/OPENMP/bond_fene_omp.cpp:116)
WARNING: FENE bond too long: 181 382727 382724 1.42639 (src/OPENMP/bond_fene_omp.cpp:116)
WARNING: FENE bond too long: 181 136422 136435 1.4930396 (src/OPENMP/bond_fene_omp.cpp:116)
WARNING: FENE bond too long: 181 136859 136858 1.4707927 (src/OPENMP/bond_fene_omp.cpp:116)
WARNING: FENE bond too long: 182 244965 244964 1.4230997 (src/OPENMP/bond_fene_omp.cpp:116)
WARNING: FENE bond too long: 182 270366 270367 1.450895 (src/OPENMP/bond_fene_omp.cpp:116)
WARNING: FENE bond too long: 182 22494 22406 1.493748 (src/OPENMP/bond_fene_omp.cpp:116)
WARNING: FENE bond too long: 182 382727 382724 1.4299369 (src/OPENMP/bond_fene_omp.cpp:116)
WARNING: FENE bond too long: 182 395742 395691 1.4442551 (src/OPENMP/bond_fene_omp.cpp:116)
WARNING: FENE bond too long: 182 270038 270101 1.4755161 (src/OPENMP/bond_fene_omp.cpp:116)
WARNING: FENE bond too long: 182 51815 51716 1.4505926 (src/OPENMP/bond_fene_omp.cpp:116)
WARNING: FENE bond too long: 182 51816 51815 1.4492547 (src/OPENMP/bond_fene_omp.cpp:116)
WARNING: FENE bond too long: 182 136422 136435 1.4913796 (src/OPENMP/bond_fene_omp.cpp:116)
WARNING: FENE bond too long: 182 136859 136858 1.4935154 (src/OPENMP/bond_fene_omp.cpp:116)
WARNING: FENE bond too long: 183 22494 22406 1.5027686 (src/OPENMP/bond_fene_omp.cpp:116)
WARNING: FENE bond too long: 183 270366 270367 1.4550435 (src/OPENMP/bond_fene_omp.cpp:116)
WARNING: FENE bond too long: 183 382727 382724 1.4353759 (src/OPENMP/bond_fene_omp.cpp:116)
WARNING: FENE bond too long: 183 395742 395691 1.4620051 (src/OPENMP/bond_fene_omp.cpp:116)
WARNING: FENE bond too long: 183 270038 270101 1.4714448 (src/OPENMP/bond_fene_omp.cpp:116)
WARNING: FENE bond too long: 183 51815 51716 1.4726272 (src/OPENMP/bond_fene_omp.cpp:116)
WARNING: FENE bond too long: 183 51816 51815 1.4602155 (src/OPENMP/bond_fene_omp.cpp:116)
WARNING: FENE bond too long: 183 136422 136435 1.4829109 (src/OPENMP/bond_fene_omp.cpp:116)
WARNING: FENE bond too long: 183 136859 136858 1.514054 (src/OPENMP/bond_fene_omp.cpp:116)
WARNING: FENE bond too long: 184 22494 22406 1.5019003 (src/OPENMP/bond_fene_omp.cpp:116)
WARNING: FENE bond too long: 184 270366 270367 1.4531348 (src/OPENMP/bond_fene_omp.cpp:116)
WARNING: FENE bond too long: 184 382727 382724 1.4419299 (src/OPENMP/bond_fene_omp.cpp:116)
WARNING: FENE bond too long: 184 395742 395691 1.4775271 (src/OPENMP/bond_fene_omp.cpp:116)
WARNING: FENE bond too long: 184 270038 270101 1.4678248 (src/OPENMP/bond_fene_omp.cpp:116)
WARNING: FENE bond too long: 184 51815 51716 1.4879617 (src/OPENMP/bond_fene_omp.cpp:116)
WARNING: FENE bond too long: 184 51816 51815 1.4678641 (src/OPENMP/bond_fene_omp.cpp:116)
WARNING: FENE bond too long: 184 136422 136435 1.4696853 (src/OPENMP/bond_fene_omp.cpp:116)
WARNING: FENE bond too long: 184 136859 136858 1.5310512 (src/OPENMP/bond_fene_omp.cpp:116)
WARNING: FENE bond too long: 184 246179 246178 1.4705586 (src/OPENMP/bond_fene_omp.cpp:116)
WARNING: FENE bond too long: 185 22494 22406 1.4920288 (src/OPENMP/bond_fene_omp.cpp:116)
WARNING: FENE bond too long: 185 5616 5622 1.443646 (src/OPENMP/bond_fene_omp.cpp:116)
WARNING: FENE bond too long: 185 10319 10309 1.4439177 (src/OPENMP/bond_fene_omp.cpp:116)
WARNING: FENE bond too long: 185 270366 270367 1.4473952 (src/OPENMP/bond_fene_omp.cpp:116)
WARNING: FENE bond too long: 185 270038 270101 1.4649785 (src/OPENMP/bond_fene_omp.cpp:116)
WARNING: FENE bond too long: 185 51815 51716 1.4961531 (src/OPENMP/bond_fene_omp.cpp:116)
WARNING: FENE bond too long: 185 395742 395691 1.4899116 (src/OPENMP/bond_fene_omp.cpp:116)
WARNING: FENE bond too long: 185 51816 51815 1.4712371 (src/OPENMP/bond_fene_omp.cpp:116)
WARNING: FENE bond too long: 185 382727 382724 1.4484946 (src/OPENMP/bond_fene_omp.cpp:116)
WARNING: FENE bond too long: 185 136422 136435 1.454355 (src/OPENMP/bond_fene_omp.cpp:116)
WARNING: FENE bond too long: 185 244812 244965 1.4249768 (src/OPENMP/bond_fene_omp.cpp:116)
WARNING: FENE bond too long: 185 136859 136858 1.5434116 (src/OPENMP/bond_fene_omp.cpp:116)
WARNING: FENE bond too long: 185 246179 246178 1.5311273 (src/OPENMP/bond_fene_omp.cpp:116)
WARNING: FENE bond too long: 186 22494 22406 1.4761622 (src/OPENMP/bond_fene_omp.cpp:116)
WARNING: FENE bond too long: 186 270366 270367 1.4403497 (src/OPENMP/bond_fene_omp.cpp:116)
WARNING: FENE bond too long: 186 10319 10309 1.4698102 (src/OPENMP/bond_fene_omp.cpp:116)
WARNING: FENE bond too long: 186 5616 5622 1.4805781 (src/OPENMP/bond_fene_omp.cpp:116)
WARNING: FENE bond too long: 186 382727 382724 1.4537755 (src/OPENMP/bond_fene_omp.cpp:116)
WARNING: FENE bond too long: 186 395742 395691 1.4988572 (src/OPENMP/bond_fene_omp.cpp:116)
WARNING: FENE bond too long: 186 270038 270101 1.4631283 (src/OPENMP/bond_fene_omp.cpp:116)
WARNING: FENE bond too long: 186 161639 161742 1.4237102 (src/OPENMP/bond_fene_omp.cpp:116)
WARNING: FENE bond too long: 186 51815 51716 1.4973418 (src/OPENMP/bond_fene_omp.cpp:116)
WARNING: FENE bond too long: 186 51816 51815 1.4697644 (src/OPENMP/bond_fene_omp.cpp:116)
WARNING: FENE bond too long: 186 136422 136435 1.4393456 (src/OPENMP/bond_fene_omp.cpp:116)
WARNING: FENE bond too long: 186 244812 244965 1.4389631 (src/OPENMP/bond_fene_omp.cpp:116)
WARNING: FENE bond too long: 186 136859 136858 1.5503656 (src/OPENMP/bond_fene_omp.cpp:116)
WARNING: FENE bond too long: 186 246179 246178 1.5899361 (src/OPENMP/bond_fene_omp.cpp:116)
WARNING: FENE bond too long: 187 22494 22406 1.4575948 (src/OPENMP/bond_fene_omp.cpp:116)
WARNING: FENE bond too long: 187 270366 270367 1.4339989 (src/OPENMP/bond_fene_omp.cpp:116)
WARNING: FENE bond too long: 187 5616 5622 1.5158561 (src/OPENMP/bond_fene_omp.cpp:116)
WARNING: FENE bond too long: 187 10319 10309 1.4957744 (src/OPENMP/bond_fene_omp.cpp:116)
WARNING: FENE bond too long: 187 382727 382724 1.4566917 (src/OPENMP/bond_fene_omp.cpp:116)
WARNING: FENE bond too long: 187 395742 395691 1.5044897 (src/OPENMP/bond_fene_omp.cpp:116)
WARNING: FENE bond too long: 187 270038 270101 1.4623583 (src/OPENMP/bond_fene_omp.cpp:116)
WARNING: FENE bond too long: 187 161639 161742 1.4371287 (src/OPENMP/bond_fene_omp.cpp:116)
WARNING: FENE bond too long: 187 51815 51716 1.4921063 (src/OPENMP/bond_fene_omp.cpp:116)
WARNING: FENE bond too long: 187 51816 51815 1.4632085 (src/OPENMP/bond_fene_omp.cpp:116)
WARNING: FENE bond too long: 187 136422 136435 1.4266094 (src/OPENMP/bond_fene_omp.cpp:116)
WARNING: FENE bond too long: 187 244812 244965 1.4529546 (src/OPENMP/bond_fene_omp.cpp:116)
WARNING: FENE bond too long: 187 136859 136858 1.5515082 (src/OPENMP/bond_fene_omp.cpp:116)
WARNING: FENE bond too long: 187 246179 246178 1.6409562 (src/OPENMP/bond_fene_omp.cpp:116)
WARNING: FENE bond too long: 188 22494 22406 1.4391273 (src/OPENMP/bond_fene_omp.cpp:116)
WARNING: FENE bond too long: 188 10319 10309 1.5194014 (src/OPENMP/bond_fene_omp.cpp:116)
WARNING: FENE bond too long: 188 5616 5622 1.547082 (src/OPENMP/bond_fene_omp.cpp:116)
WARNING: FENE bond too long: 188 270366 270367 1.4298235 (src/OPENMP/bond_fene_omp.cpp:116)
WARNING: FENE bond too long: 188 161742 161732 1.4351076 (src/OPENMP/bond_fene_omp.cpp:116)
WARNING: FENE bond too long: 188 161639 161742 1.4483646 (src/OPENMP/bond_fene_omp.cpp:116)
WARNING: FENE bond too long: 188 382727 382724 1.4570057 (src/OPENMP/bond_fene_omp.cpp:116)
WARNING: FENE bond too long: 188 395742 395691 1.5071674 (src/OPENMP/bond_fene_omp.cpp:116)
WARNING: FENE bond too long: 188 270038 270101 1.4625639 (src/OPENMP/bond_fene_omp.cpp:116)
WARNING: FENE bond too long: 188 51815 51716 1.481172 (src/OPENMP/bond_fene_omp.cpp:116)
WARNING: FENE bond too long: 188 51816 51815 1.4515904 (src/OPENMP/bond_fene_omp.cpp:116)
WARNING: FENE bond too long: 188 246179 246178 1.6784518 (src/OPENMP/bond_fene_omp.cpp:116)
WARNING: FENE bond too long: 189 5616 5622 1.5722345 (src/OPENMP/bond_fene_omp.cpp:116)
WARNING: FENE bond too long: 189 10319 10309 1.5381094 (src/OPENMP/bond_fene_omp.cpp:116)
WARNING: FENE bond too long: 189 270366 270367 1.4288226 (src/OPENMP/bond_fene_omp.cpp:116)
WARNING: FENE bond too long: 189 161742 161732 1.4442663 (src/OPENMP/bond_fene_omp.cpp:116)
WARNING: FENE bond too long: 189 161639 161742 1.4562863 (src/OPENMP/bond_fene_omp.cpp:116)
WARNING: FENE bond too long: 189 270038 270101 1.4633841 (src/OPENMP/bond_fene_omp.cpp:116)
WARNING: FENE bond too long: 189 51815 51716 1.4652668 (src/OPENMP/bond_fene_omp.cpp:116)
WARNING: FENE bond too long: 189 51816 51815 1.4352759 (src/OPENMP/bond_fene_omp.cpp:116)
WARNING: FENE bond too long: 189 395742 395691 1.5073457 (src/OPENMP/bond_fene_omp.cpp:116)
WARNING: FENE bond too long: 189 382727 382724 1.4554006 (src/OPENMP/bond_fene_omp.cpp:116)
WARNING: FENE bond too long: 189 246179 246178 1.6981866 (src/OPENMP/bond_fene_omp.cpp:116)
WARNING: FENE bond too long: 190 244965 244964 1.4412195 (src/OPENMP/bond_fene_omp.cpp:116)
WARNING: FENE bond too long: 190 161742 161732 1.4489648 (src/OPENMP/bond_fene_omp.cpp:116)
WARNING: FENE bond too long: 190 161639 161742 1.4601336 (src/OPENMP/bond_fene_omp.cpp:116)
WARNING: FENE bond too long: 190 5616 5622 1.5897158 (src/OPENMP/bond_fene_omp.cpp:116)
WARNING: FENE bond too long: 190 270366 270367 1.4315523 (src/OPENMP/bond_fene_omp.cpp:116)
WARNING: FENE bond too long: 190 10319 10309 1.5493167 (src/OPENMP/bond_fene_omp.cpp:116)
WARNING: FENE bond too long: 190 395742 395691 1.5055763 (src/OPENMP/bond_fene_omp.cpp:116)
WARNING: FENE bond too long: 190 382727 382724 1.453064 (src/OPENMP/bond_fene_omp.cpp:116)
WARNING: FENE bond too long: 190 270038 270101 1.4641255 (src/OPENMP/bond_fene_omp.cpp:116)
WARNING: FENE bond too long: 190 51815 51716 1.4452004 (src/OPENMP/bond_fene_omp.cpp:116)
WARNING: FENE bond too long: 190 246179 246178 1.6985684 (src/OPENMP/bond_fene_omp.cpp:116)
WARNING: FENE bond too long: 191 244965 244964 1.4626635 (src/OPENMP/bond_fene_omp.cpp:116)
WARNING: FENE bond too long: 191 5616 5622 1.5984085 (src/OPENMP/bond_fene_omp.cpp:116)
WARNING: FENE bond too long: 191 270366 270367 1.4381763 (src/OPENMP/bond_fene_omp.cpp:116)
WARNING: FENE bond too long: 191 10319 10309 1.5509479 (src/OPENMP/bond_fene_omp.cpp:116)
WARNING: FENE bond too long: 191 395742 395691 1.5024604 (src/OPENMP/bond_fene_omp.cpp:116)
WARNING: FENE bond too long: 191 382727 382724 1.4511602 (src/OPENMP/bond_fene_omp.cpp:116)
WARNING: FENE bond too long: 191 270038 270101 1.4637282 (src/OPENMP/bond_fene_omp.cpp:116)
WARNING: FENE bond too long: 191 161742 161732 1.4493534 (src/OPENMP/bond_fene_omp.cpp:116)
WARNING: FENE bond too long: 191 161639 161742 1.4594437 (src/OPENMP/bond_fene_omp.cpp:116)
WARNING: FENE bond too long: 191 246179 246178 1.680852 (src/OPENMP/bond_fene_omp.cpp:116)
WARNING: FENE bond too long: 192 244965 244964 1.4788606 (src/OPENMP/bond_fene_omp.cpp:116)
WARNING: FENE bond too long: 192 10319 10309 1.5424489 (src/OPENMP/bond_fene_omp.cpp:116)
WARNING: FENE bond too long: 192 5616 5622 1.5977669 (src/OPENMP/bond_fene_omp.cpp:116)
WARNING: FENE bond too long: 192 161742 161732 1.4458785 (src/OPENMP/bond_fene_omp.cpp:116)
WARNING: FENE bond too long: 192 270366 270367 1.4484611 (src/OPENMP/bond_fene_omp.cpp:116)
WARNING: FENE bond too long: 192 161639 161742 1.454158 (src/OPENMP/bond_fene_omp.cpp:116)
WARNING: FENE bond too long: 192 382727 382724 1.4505811 (src/OPENMP/bond_fene_omp.cpp:116)
WARNING: FENE bond too long: 192 395742 395691 1.4986888 (src/OPENMP/bond_fene_omp.cpp:116)
WARNING: FENE bond too long: 192 270038 270101 1.461121 (src/OPENMP/bond_fene_omp.cpp:116)
WARNING: FENE bond too long: 192 246179 246178 1.64811 (src/OPENMP/bond_fene_omp.cpp:116)
WARNING: FENE bond too long: 193 244965 244964 1.4886038 (src/OPENMP/bond_fene_omp.cpp:116)
WARNING: FENE bond too long: 193 10319 10309 1.5253307 (src/OPENMP/bond_fene_omp.cpp:116)
WARNING: FENE bond too long: 193 22494 22406 1.4254422 (src/OPENMP/bond_fene_omp.cpp:116)
WARNING: FENE bond too long: 193 5616 5622 1.5878855 (src/OPENMP/bond_fene_omp.cpp:116)
WARNING: FENE bond too long: 193 270366 270367 1.4617736 (src/OPENMP/bond_fene_omp.cpp:116)
WARNING: FENE bond too long: 193 161742 161732 1.4392433 (src/OPENMP/bond_fene_omp.cpp:116)
WARNING: FENE bond too long: 193 161639 161742 1.4446191 (src/OPENMP/bond_fene_omp.cpp:116)
WARNING: FENE bond too long: 193 395742 395691 1.4949459 (src/OPENMP/bond_fene_omp.cpp:116)
WARNING: FENE bond too long: 193 382727 382724 1.4518676 (src/OPENMP/bond_fene_omp.cpp:116)
WARNING: FENE bond too long: 193 270038 270101 1.4557653 (src/OPENMP/bond_fene_omp.cpp:116)
WARNING: FENE bond too long: 193 246179 246178 1.6042773 (src/OPENMP/bond_fene_omp.cpp:116)
WARNING: FENE bond too long: 194 5616 5622 1.5695002 (src/OPENMP/bond_fene_omp.cpp:116)
WARNING: FENE bond too long: 194 22494 22406 1.4434397 (src/OPENMP/bond_fene_omp.cpp:116)
WARNING: FENE bond too long: 194 244965 244964 1.491294 (src/OPENMP/bond_fene_omp.cpp:116)
WARNING: FENE bond too long: 194 10319 10309 1.5023823 (src/OPENMP/bond_fene_omp.cpp:116)
WARNING: FENE bond too long: 194 270366 270367 1.4771229 (src/OPENMP/bond_fene_omp.cpp:116)
WARNING: FENE bond too long: 194 161742 161732 1.430352 (src/OPENMP/bond_fene_omp.cpp:116)
WARNING: FENE bond too long: 194 161639 161742 1.4315422 (src/OPENMP/bond_fene_omp.cpp:116)
WARNING: FENE bond too long: 194 270038 270101 1.4481662 (src/OPENMP/bond_fene_omp.cpp:116)
WARNING: FENE bond too long: 194 395742 395691 1.4918296 (src/OPENMP/bond_fene_omp.cpp:116)
WARNING: FENE bond too long: 194 382727 382724 1.4552783 (src/OPENMP/bond_fene_omp.cpp:116)
WARNING: FENE bond too long: 194 246179 246178 1.5536456 (src/OPENMP/bond_fene_omp.cpp:116)
WARNING: FENE bond too long: 195 22494 22406 1.4644445 (src/OPENMP/bond_fene_omp.cpp:116)
WARNING: FENE bond too long: 195 244965 244964 1.4870335 (src/OPENMP/bond_fene_omp.cpp:116)
WARNING: FENE bond too long: 195 10319 10309 1.4765653 (src/OPENMP/bond_fene_omp.cpp:116)
WARNING: FENE bond too long: 195 5616 5622 1.5439512 (src/OPENMP/bond_fene_omp.cpp:116)
WARNING: FENE bond too long: 195 270366 270367 1.4932319 (src/OPENMP/bond_fene_omp.cpp:116)
WARNING: FENE bond too long: 195 395742 395691 1.4897975 (src/OPENMP/bond_fene_omp.cpp:116)
WARNING: FENE bond too long: 195 382727 382724 1.4608806 (src/OPENMP/bond_fene_omp.cpp:116)
WARNING: FENE bond too long: 195 270038 270101 1.4398378 (src/OPENMP/bond_fene_omp.cpp:116)
WARNING: FENE bond too long: 195 246179 246178 1.5006534 (src/OPENMP/bond_fene_omp.cpp:116)
WARNING: FENE bond too long: 196 244965 244964 1.4768445 (src/OPENMP/bond_fene_omp.cpp:116)
WARNING: FENE bond too long: 196 22494 22406 1.4865172 (src/OPENMP/bond_fene_omp.cpp:116)
WARNING: FENE bond too long: 196 10319 10309 1.4506249 (src/OPENMP/bond_fene_omp.cpp:116)
WARNING: FENE bond too long: 196 5616 5622 1.5132029 (src/OPENMP/bond_fene_omp.cpp:116)
WARNING: FENE bond too long: 196 270366 270367 1.508677 (src/OPENMP/bond_fene_omp.cpp:116)
WARNING: FENE bond too long: 196 395742 395691 1.4891291 (src/OPENMP/bond_fene_omp.cpp:116)
WARNING: FENE bond too long: 196 382727 382724 1.4685484 (src/OPENMP/bond_fene_omp.cpp:116)
WARNING: FENE bond too long: 196 270038 270101 1.4326825 (src/OPENMP/bond_fene_omp.cpp:116)
WARNING: FENE bond too long: 196 246179 246178 1.4497503 (src/OPENMP/bond_fene_omp.cpp:116)
WARNING: FENE bond too long: 197 244965 244964 1.4643512 (src/OPENMP/bond_fene_omp.cpp:116)
WARNING: FENE bond too long: 197 22494 22406 1.5074096 (src/OPENMP/bond_fene_omp.cpp:116)
WARNING: FENE bond too long: 197 5616 5622 1.4797759 (src/OPENMP/bond_fene_omp.cpp:116)
WARNING: FENE bond too long: 197 10319 10309 1.4271035 (src/OPENMP/bond_fene_omp.cpp:116)
WARNING: FENE bond too long: 197 270366 270367 1.5220015 (src/OPENMP/bond_fene_omp.cpp:116)
WARNING: FENE bond too long: 197 382727 382724 1.4779516 (src/OPENMP/bond_fene_omp.cpp:116)
WARNING: FENE bond too long: 197 395742 395691 1.4899019 (src/OPENMP/bond_fene_omp.cpp:116)
WARNING: FENE bond too long: 197 270038 270101 1.428423 (src/OPENMP/bond_fene_omp.cpp:116)
WARNING: FENE bond too long: 197 51815 51716 1.4292157 (src/OPENMP/bond_fene_omp.cpp:116)
WARNING: FENE bond too long: 197 51816 51815 1.4299326 (src/OPENMP/bond_fene_omp.cpp:116)
WARNING: FENE bond too long: 198 244965 244964 1.4524155 (src/OPENMP/bond_fene_omp.cpp:116)
WARNING: FENE bond too long: 198 22494 22406 1.5248826 (src/OPENMP/bond_fene_omp.cpp:116)
WARNING: FENE bond too long: 198 5616 5622 1.4464194 (src/OPENMP/bond_fene_omp.cpp:116)
WARNING: FENE bond too long: 198 270366 270367 1.5318275 (src/OPENMP/bond_fene_omp.cpp:116)
WARNING: FENE bond too long: 198 382727 382724 1.4885443 (src/OPENMP/bond_fene_omp.cpp:116)
WARNING: FENE bond too long: 198 395742 395691 1.4920036 (src/OPENMP/bond_fene_omp.cpp:116)
WARNING: FENE bond too long: 198 270038 270101 1.4282588 (src/OPENMP/bond_fene_omp.cpp:116)
WARNING: FENE bond too long: 198 51815 51716 1.452734 (src/OPENMP/bond_fene_omp.cpp:116)
WARNING: FENE bond too long: 198 51816 51815 1.4509089 (src/OPENMP/bond_fene_omp.cpp:116)
WARNING: FENE bond too long: 199 244965 244964 1.4430379 (src/OPENMP/bond_fene_omp.cpp:116)
WARNING: FENE bond too long: 199 22494 22406 1.5371554 (src/OPENMP/bond_fene_omp.cpp:116)
WARNING: FENE bond too long: 199 270366 270367 1.5371521 (src/OPENMP/bond_fene_omp.cpp:116)
WARNING: FENE bond too long: 199 270038 270101 1.4328424 (src/OPENMP/bond_fene_omp.cpp:116)
WARNING: FENE bond too long: 199 51815 51716 1.4747947 (src/OPENMP/bond_fene_omp.cpp:116)
WARNING: FENE bond too long: 199 51816 51815 1.4673346 (src/OPENMP/bond_fene_omp.cpp:116)
WARNING: FENE bond too long: 199 395742 395691 1.4951151 (src/OPENMP/bond_fene_omp.cpp:116)
WARNING: FENE bond too long: 199 382727 382724 1.499604 (src/OPENMP/bond_fene_omp.cpp:116)
WARNING: FENE bond too long: 200 22494 22406 1.5433484 (src/OPENMP/bond_fene_omp.cpp:116)
WARNING: FENE bond too long: 200 244965 244964 1.4369503 (src/OPENMP/bond_fene_omp.cpp:116)
WARNING: FENE bond too long: 200 270366 270367 1.5375922 (src/OPENMP/bond_fene_omp.cpp:116)
WARNING: FENE bond too long: 200 395742 395691 1.4987314 (src/OPENMP/bond_fene_omp.cpp:116)
WARNING: FENE bond too long: 200 382727 382724 1.5102892 (src/OPENMP/bond_fene_omp.cpp:116)
WARNING: FENE bond too long: 200 270038 270101 1.4422225 (src/OPENMP/bond_fene_omp.cpp:116)
WARNING: FENE bond too long: 200 161742 161732 1.4297932 (src/OPENMP/bond_fene_omp.cpp:116)
WARNING: FENE bond too long: 200 51815 51716 1.493962 (src/OPENMP/bond_fene_omp.cpp:116)
WARNING: FENE bond too long: 200 51816 51815 1.4783597 (src/OPENMP/bond_fene_omp.cpp:116)
WARNING: FENE bond too long: 201 22494 22406 1.5435669 (src/OPENMP/bond_fene_omp.cpp:116)
WARNING: FENE bond too long: 201 244965 244964 1.4334965 (src/OPENMP/bond_fene_omp.cpp:116)
WARNING: FENE bond too long: 201 270366 270367 1.5334727 (src/OPENMP/bond_fene_omp.cpp:116)
WARNING: FENE bond too long: 201 161742 161732 1.4414447 (src/OPENMP/bond_fene_omp.cpp:116)
WARNING: FENE bond too long: 201 161639 161742 1.4259091 (src/OPENMP/bond_fene_omp.cpp:116)
WARNING: FENE bond too long: 201 382727 382724 1.5197406 (src/OPENMP/bond_fene_omp.cpp:116)
WARNING: FENE bond too long: 201 395742 395691 1.5021949 (src/OPENMP/bond_fene_omp.cpp:116)
WARNING: FENE bond too long: 201 51815 51716 1.5087997 (src/OPENMP/bond_fene_omp.cpp:116)
WARNING: FENE bond too long: 201 51816 51815 1.4834802 (src/OPENMP/bond_fene_omp.cpp:116)
WARNING: FENE bond too long: 201 270038 270101 1.4559688 (src/OPENMP/bond_fene_omp.cpp:116)
WARNING: FENE bond too long: 202 244965 244964 1.4307402 (src/OPENMP/bond_fene_omp.cpp:116)
WARNING: FENE bond too long: 202 22494 22406 1.5386837 (src/OPENMP/bond_fene_omp.cpp:116)
WARNING: FENE bond too long: 202 10319 10309 1.4427819 (src/OPENMP/bond_fene_omp.cpp:116)
WARNING: FENE bond too long: 202 270366 270367 1.5256093 (src/OPENMP/bond_fene_omp.cpp:116)
WARNING: FENE bond too long: 202 161742 161732 1.4508222 (src/OPENMP/bond_fene_omp.cpp:116)
WARNING: FENE bond too long: 202 161639 161742 1.4399912 (src/OPENMP/bond_fene_omp.cpp:116)
WARNING: FENE bond too long: 202 382727 382724 1.5271817 (src/OPENMP/bond_fene_omp.cpp:116)
WARNING: FENE bond too long: 202 395742 395691 1.5046847 (src/OPENMP/bond_fene_omp.cpp:116)
WARNING: FENE bond too long: 202 270038 270101 1.4733177 (src/OPENMP/bond_fene_omp.cpp:116)
WARNING: FENE bond too long: 202 51815 51716 1.518054 (src/OPENMP/bond_fene_omp.cpp:116)
WARNING: FENE bond too long: 202 51816 51815 1.4827287 (src/OPENMP/bond_fene_omp.cpp:116)
WARNING: FENE bond too long: 202 246179 246178 1.4492344 (src/OPENMP/bond_fene_omp.cpp:116)
WARNING: FENE bond too long: 203 244965 244964 1.4266089 (src/OPENMP/bond_fene_omp.cpp:116)
WARNING: FENE bond too long: 203 22494 22406 1.5300055 (src/OPENMP/bond_fene_omp.cpp:116)
WARNING: FENE bond too long: 203 10319 10309 1.4718024 (src/OPENMP/bond_fene_omp.cpp:116)
WARNING: FENE bond too long: 203 270366 270367 1.5150657 (src/OPENMP/bond_fene_omp.cpp:116)
WARNING: FENE bond too long: 203 382727 382724 1.5319595 (src/OPENMP/bond_fene_omp.cpp:116)
WARNING: FENE bond too long: 203 161742 161732 1.4568764 (src/OPENMP/bond_fene_omp.cpp:116)
WARNING: FENE bond too long: 203 161639 161742 1.4516171 (src/OPENMP/bond_fene_omp.cpp:116)
WARNING: FENE bond too long: 203 395742 395691 1.5052994 (src/OPENMP/bond_fene_omp.cpp:116)
WARNING: FENE bond too long: 203 270038 270101 1.4932303 (src/OPENMP/bond_fene_omp.cpp:116)
WARNING: FENE bond too long: 203 51815 51716 1.5208375 (src/OPENMP/bond_fene_omp.cpp:116)
WARNING: FENE bond too long: 203 51816 51815 1.4766914 (src/OPENMP/bond_fene_omp.cpp:116)
WARNING: FENE bond too long: 203 246179 246178 1.4998401 (src/OPENMP/bond_fene_omp.cpp:116)
WARNING: FENE bond too long: 204 22494 22406 1.5189792 (src/OPENMP/bond_fene_omp.cpp:116)
WARNING: FENE bond too long: 204 10319 10309 1.5040858 (src/OPENMP/bond_fene_omp.cpp:116)
WARNING: FENE bond too long: 204 5616 5622 1.4366567 (src/OPENMP/bond_fene_omp.cpp:116)
WARNING: FENE bond too long: 204 270366 270367 1.5029917 (src/OPENMP/bond_fene_omp.cpp:116)
WARNING: FENE bond too long: 204 161742 161732 1.4588418 (src/OPENMP/bond_fene_omp.cpp:116)
WARNING: FENE bond too long: 204 161639 161742 1.4599208 (src/OPENMP/bond_fene_omp.cpp:116)
WARNING: FENE bond too long: 204 270038 270101 1.5143461 (src/OPENMP/bond_fene_omp.cpp:116)
WARNING: FENE bond too long: 204 51815 51716 1.5167375 (src/OPENMP/bond_fene_omp.cpp:116)
WARNING: FENE bond too long: 204 51816 51815 1.4664198 (src/OPENMP/bond_fene_omp.cpp:116)
WARNING: FENE bond too long: 204 395742 395691 1.5031683 (src/OPENMP/bond_fene_omp.cpp:116)
WARNING: FENE bond too long: 204 382727 382724 1.5336338 (src/OPENMP/bond_fene_omp.cpp:116)
WARNING: FENE bond too long: 204 246179 246178 1.5523143 (src/OPENMP/bond_fene_omp.cpp:116)
WARNING: FENE bond too long: 205 22494 22406 1.5070526 (src/OPENMP/bond_fene_omp.cpp:116)
WARNING: FENE bond too long: 205 382727 382724 1.5320026 (src/OPENMP/bond_fene_omp.cpp:116)
WARNING: FENE bond too long: 205 270366 270367 1.4905365 (src/OPENMP/bond_fene_omp.cpp:116)
WARNING: FENE bond too long: 205 395742 395691 1.4975799 (src/OPENMP/bond_fene_omp.cpp:116)
WARNING: FENE bond too long: 205 5616 5622 1.4713136 (src/OPENMP/bond_fene_omp.cpp:116)
WARNING: FENE bond too long: 205 10319 10309 1.5372494 (src/OPENMP/bond_fene_omp.cpp:116)
WARNING: FENE bond too long: 205 270038 270101 1.5351508 (src/OPENMP/bond_fene_omp.cpp:116)
WARNING: FENE bond too long: 205 161742 161732 1.456372 (src/OPENMP/bond_fene_omp.cpp:116)
WARNING: FENE bond too long: 205 161639 161742 1.4642845 (src/OPENMP/bond_fene_omp.cpp:116)
WARNING: FENE bond too long: 205 51815 51716 1.5058777 (src/OPENMP/bond_fene_omp.cpp:116)
WARNING: FENE bond too long: 205 51816 51815 1.4533231 (src/OPENMP/bond_fene_omp.cpp:116)
WARNING: FENE bond too long: 205 246179 246178 1.6018889 (src/OPENMP/bond_fene_omp.cpp:116)
WARNING: FENE bond too long: 206 270366 270367 1.4788703 (src/OPENMP/bond_fene_omp.cpp:116)
WARNING: FENE bond too long: 206 22494 22406 1.4956314 (src/OPENMP/bond_fene_omp.cpp:116)
WARNING: FENE bond too long: 206 5616 5622 1.5081167 (src/OPENMP/bond_fene_omp.cpp:116)
WARNING: FENE bond too long: 206 161742 161732 1.4496366 (src/OPENMP/bond_fene_omp.cpp:116)
WARNING: FENE bond too long: 206 161639 161742 1.4643575 (src/OPENMP/bond_fene_omp.cpp:116)
WARNING: FENE bond too long: 206 10319 10309 1.5688043 (src/OPENMP/bond_fene_omp.cpp:116)
WARNING: FENE bond too long: 206 270038 270101 1.5540997 (src/OPENMP/bond_fene_omp.cpp:116)
WARNING: FENE bond too long: 206 382727 382724 1.5271142 (src/OPENMP/bond_fene_omp.cpp:116)
WARNING: FENE bond too long: 206 395742 395691 1.4884008 (src/OPENMP/bond_fene_omp.cpp:116)
WARNING: FENE bond too long: 206 51815 51716 1.4889499 (src/OPENMP/bond_fene_omp.cpp:116)
WARNING: FENE bond too long: 206 51816 51815 1.4391602 (src/OPENMP/bond_fene_omp.cpp:116)
WARNING: FENE bond too long: 206 246179 246178 1.6439733 (src/OPENMP/bond_fene_omp.cpp:116)
WARNING: FENE bond too long: 207 22494 22406 1.4860349 (src/OPENMP/bond_fene_omp.cpp:116)
WARNING: FENE bond too long: 207 5616 5622 1.5442952 (src/OPENMP/bond_fene_omp.cpp:116)
WARNING: FENE bond too long: 207 10319 10309 1.5962532 (src/OPENMP/bond_fene_omp.cpp:116)
WARNING: FENE bond too long: 207 161742 161732 1.4392932 (src/OPENMP/bond_fene_omp.cpp:116)
WARNING: FENE bond too long: 207 161639 161742 1.460083 (src/OPENMP/bond_fene_omp.cpp:116)
WARNING: FENE bond too long: 207 270366 270367 1.4691002 (src/OPENMP/bond_fene_omp.cpp:116)
WARNING: FENE bond too long: 207 382727 382724 1.5192851 (src/OPENMP/bond_fene_omp.cpp:116)
WARNING: FENE bond too long: 207 395742 395691 1.4762474 (src/OPENMP/bond_fene_omp.cpp:116)
WARNING: FENE bond too long: 207 270038 270101 1.569671 (src/OPENMP/bond_fene_omp.cpp:116)
WARNING: FENE bond too long: 207 51815 51716 1.4671417 (src/OPENMP/bond_fene_omp.cpp:116)
WARNING: FENE bond too long: 207 51816 51815 1.4257695 (src/OPENMP/bond_fene_omp.cpp:116)
WARNING: FENE bond too long: 207 246179 246178 1.6751072 (src/OPENMP/bond_fene_omp.cpp:116)
WARNING: FENE bond too long: 208 22494 22406 1.4794587 (src/OPENMP/bond_fene_omp.cpp:116)
WARNING: FENE bond too long: 208 10319 10309 1.6173437 (src/OPENMP/bond_fene_omp.cpp:116)
WARNING: FENE bond too long: 208 5616 5622 1.5770458 (src/OPENMP/bond_fene_omp.cpp:116)
WARNING: FENE bond too long: 208 270366 270367 1.4621559 (src/OPENMP/bond_fene_omp.cpp:116)
WARNING: FENE bond too long: 208 161742 161732 1.4263929 (src/OPENMP/bond_fene_omp.cpp:116)
WARNING: FENE bond too long: 208 161639 161742 1.4517666 (src/OPENMP/bond_fene_omp.cpp:116)
WARNING: FENE bond too long: 208 382727 382724 1.5090348 (src/OPENMP/bond_fene_omp.cpp:116)
WARNING: FENE bond too long: 208 270038 270101 1.5805052 (src/OPENMP/bond_fene_omp.cpp:116)
WARNING: FENE bond too long: 208 395742 395691 1.462467 (src/OPENMP/bond_fene_omp.cpp:116)
WARNING: FENE bond too long: 208 51815 51716 1.4419498 (src/OPENMP/bond_fene_omp.cpp:116)
WARNING: FENE bond too long: 208 246179 246178 1.6930285 (src/OPENMP/bond_fene_omp.cpp:116)
WARNING: FENE bond too long: 209 5616 5622 1.6038387 (src/OPENMP/bond_fene_omp.cpp:116)
WARNING: FENE bond too long: 209 22494 22406 1.4767836 (src/OPENMP/bond_fene_omp.cpp:116)
WARNING: FENE bond too long: 209 10319 10309 1.6302947 (src/OPENMP/bond_fene_omp.cpp:116)
WARNING: FENE bond too long: 209 270366 270367 1.4587442 (src/OPENMP/bond_fene_omp.cpp:116)
WARNING: FENE bond too long: 209 161639 161742 1.4401719 (src/OPENMP/bond_fene_omp.cpp:116)
WARNING: FENE bond too long: 209 270038 270101 1.5855755 (src/OPENMP/bond_fene_omp.cpp:116)
WARNING: FENE bond too long: 209 395742 395691 1.4489395 (src/OPENMP/bond_fene_omp.cpp:116)
WARNING: FENE bond too long: 209 382727 382724 1.4970268 (src/OPENMP/bond_fene_omp.cpp:116)
WARNING: FENE bond too long: 209 246179 246178 1.6967872 (src/OPENMP/bond_fene_omp.cpp:116)
WARNING: FENE bond too long: 210 22494 22406 1.478529 (src/OPENMP/bond_fene_omp.cpp:116)
WARNING: FENE bond too long: 210 5616 5622 1.6226669 (src/OPENMP/bond_fene_omp.cpp:116)
WARNING: FENE bond too long: 210 10319 10309 1.6338774 (src/OPENMP/bond_fene_omp.cpp:116)
WARNING: FENE bond too long: 210 270366 270367 1.4592463 (src/OPENMP/bond_fene_omp.cpp:116)
WARNING: FENE bond too long: 210 395742 395691 1.4377318 (src/OPENMP/bond_fene_omp.cpp:116)
WARNING: FENE bond too long: 210 382727 382724 1.4840338 (src/OPENMP/bond_fene_omp.cpp:116)
WARNING: FENE bond too long: 210 161639 161742 1.4274849 (src/OPENMP/bond_fene_omp.cpp:116)
WARNING: FENE bond too long: 210 270038 270101 1.5843721 (src/OPENMP/bond_fene_omp.cpp:116)
WARNING: FENE bond too long: 210 246179 246178 1.6865425 (src/OPENMP/bond_fene_omp.cpp:116)
WARNING: FENE bond too long: 211 22494 22406 1.4848101 (src/OPENMP/bond_fene_omp.cpp:116)
WARNING: FENE bond too long: 211 244965 244964 1.4260301 (src/OPENMP/bond_fene_omp.cpp:116)
WARNING: FENE bond too long: 211 10319 10309 1.6275231 (src/OPENMP/bond_fene_omp.cpp:116)
WARNING: FENE bond too long: 211 5616 5622 1.632133 (src/OPENMP/bond_fene_omp.cpp:116)
WARNING: FENE bond too long: 211 270366 270367 1.4637175 (src/OPENMP/bond_fene_omp.cpp:116)
WARNING: FENE bond too long: 211 382727 382724 1.4709294 (src/OPENMP/bond_fene_omp.cpp:116)
WARNING: FENE bond too long: 211 395742 395691 1.4307133 (src/OPENMP/bond_fene_omp.cpp:116)
WARNING: FENE bond too long: 211 270038 270101 1.5768757 (src/OPENMP/bond_fene_omp.cpp:116)
WARNING: FENE bond too long: 211 51816 51815 1.4246519 (src/OPENMP/bond_fene_omp.cpp:116)
WARNING: FENE bond too long: 211 246179 246178 1.6634722 (src/OPENMP/bond_fene_omp.cpp:116)
WARNING: FENE bond too long: 212 244965 244964 1.4315166 (src/OPENMP/bond_fene_omp.cpp:116)
WARNING: FENE bond too long: 212 22494 22406 1.4953041 (src/OPENMP/bond_fene_omp.cpp:116)
WARNING: FENE bond too long: 212 10319 10309 1.6115866 (src/OPENMP/bond_fene_omp.cpp:116)
WARNING: FENE bond too long: 212 5616 5622 1.6316079 (src/OPENMP/bond_fene_omp.cpp:116)
WARNING: FENE bond too long: 212 270366 270367 1.4719516 (src/OPENMP/bond_fene_omp.cpp:116)
WARNING: FENE bond too long: 212 382727 382724 1.4585573 (src/OPENMP/bond_fene_omp.cpp:116)
WARNING: FENE bond too long: 212 395742 395691 1.4292563 (src/OPENMP/bond_fene_omp.cpp:116)
WARNING: FENE bond too long: 212 270038 270101 1.563615 (src/OPENMP/bond_fene_omp.cpp:116)
WARNING: FENE bond too long: 212 51816 51815 1.4426357 (src/OPENMP/bond_fene_omp.cpp:116)
WARNING: FENE bond too long: 212 246179 246178 1.6296357 (src/OPENMP/bond_fene_omp.cpp:116)
WARNING: FENE bond too long: 213 5616 5622 1.6212675 (src/OPENMP/bond_fene_omp.cpp:116)
WARNING: FENE bond too long: 213 244965 244964 1.4356988 (src/OPENMP/bond_fene_omp.cpp:116)
WARNING: FENE bond too long: 213 22494 22406 1.5092557 (src/OPENMP/bond_fene_omp.cpp:116)
WARNING: FENE bond too long: 213 10319 10309 1.5872243 (src/OPENMP/bond_fene_omp.cpp:116)
WARNING: FENE bond too long: 213 270366 270367 1.4834126 (src/OPENMP/bond_fene_omp.cpp:116)
WARNING: FENE bond too long: 213 270038 270101 1.5456338 (src/OPENMP/bond_fene_omp.cpp:116)
WARNING: FENE bond too long: 213 51816 51815 1.4646321 (src/OPENMP/bond_fene_omp.cpp:116)
WARNING: FENE bond too long: 213 395742 395691 1.4340646 (src/OPENMP/bond_fene_omp.cpp:116)
WARNING: FENE bond too long: 213 382727 382724 1.4476573 (src/OPENMP/bond_fene_omp.cpp:116)
WARNING: FENE bond too long: 213 246179 246178 1.5879066 (src/OPENMP/bond_fene_omp.cpp:116)
WARNING: FENE bond too long: 214 244965 244964 1.4385457 (src/OPENMP/bond_fene_omp.cpp:116)
WARNING: FENE bond too long: 214 270366 270367 1.4972216 (src/OPENMP/bond_fene_omp.cpp:116)
WARNING: FENE bond too long: 214 5616 5622 1.6020276 (src/OPENMP/bond_fene_omp.cpp:116)
WARNING: FENE bond too long: 214 22494 22406 1.5255534 (src/OPENMP/bond_fene_omp.cpp:116)
WARNING: FENE bond too long: 214 382727 382724 1.4388786 (src/OPENMP/bond_fene_omp.cpp:116)
WARNING: FENE bond too long: 214 161742 161732 1.4247229 (src/OPENMP/bond_fene_omp.cpp:116)
WARNING: FENE bond too long: 214 395742 395691 1.4452172 (src/OPENMP/bond_fene_omp.cpp:116)
WARNING: FENE bond too long: 214 10319 10309 1.5562254 (src/OPENMP/bond_fene_omp.cpp:116)
WARNING: FENE bond too long: 214 270038 270101 1.5243684 (src/OPENMP/bond_fene_omp.cpp:116)
WARNING: FENE bond too long: 214 51816 51815 1.4871326 (src/OPENMP/bond_fene_omp.cpp:116)
WARNING: FENE bond too long: 214 246179 246178 1.5418504 (src/OPENMP/bond_fene_omp.cpp:116)
WARNING: FENE bond too long: 215 244965 244964 1.4403774 (src/OPENMP/bond_fene_omp.cpp:116)
WARNING: FENE bond too long: 215 10319 10309 1.5208793 (src/OPENMP/bond_fene_omp.cpp:116)
WARNING: FENE bond too long: 215 22494 22406 1.5428024 (src/OPENMP/bond_fene_omp.cpp:116)
WARNING: FENE bond too long: 215 5616 5622 1.5755268 (src/OPENMP/bond_fene_omp.cpp:116)
WARNING: FENE bond too long: 215 270366 270367 1.5121789 (src/OPENMP/bond_fene_omp.cpp:116)
WARNING: FENE bond too long: 215 161742 161732 1.4420211 (src/OPENMP/bond_fene_omp.cpp:116)
WARNING: FENE bond too long: 215 161639 161742 1.4251492 (src/OPENMP/bond_fene_omp.cpp:116)
WARNING: FENE bond too long: 215 382727 382724 1.4328644 (src/OPENMP/bond_fene_omp.cpp:116)
WARNING: FENE bond too long: 215 395742 395691 1.4621243 (src/OPENMP/bond_fene_omp.cpp:116)
WARNING: FENE bond too long: 215 270038 270101 1.501538 (src/OPENMP/bond_fene_omp.cpp:116)
WARNING: FENE bond too long: 215 51816 51815 1.5047669 (src/OPENMP/bond_fene_omp.cpp:116)
WARNING: FENE bond too long: 215 246179 246178 1.4956041 (src/OPENMP/bond_fene_omp.cpp:116)
WARNING: FENE bond too long: 216 244965 244964 1.4427553 (src/OPENMP/bond_fene_omp.cpp:116)
WARNING: FENE bond too long: 216 10319 10309 1.4838424 (src/OPENMP/bond_fene_omp.cpp:116)
WARNING: FENE bond too long: 216 22494 22406 1.5594725 (src/OPENMP/bond_fene_omp.cpp:116)
WARNING: FENE bond too long: 216 5616 5622 1.5440004 (src/OPENMP/bond_fene_omp.cpp:116)
WARNING: FENE bond too long: 216 270366 270367 1.5268454 (src/OPENMP/bond_fene_omp.cpp:116)
WARNING: FENE bond too long: 216 161742 161732 1.4580623 (src/OPENMP/bond_fene_omp.cpp:116)
WARNING: FENE bond too long: 216 161639 161742 1.4368219 (src/OPENMP/bond_fene_omp.cpp:116)
WARNING: FENE bond too long: 216 382727 382724 1.4302586 (src/OPENMP/bond_fene_omp.cpp:116)
WARNING: FENE bond too long: 216 395742 395691 1.4836468 (src/OPENMP/bond_fene_omp.cpp:116)
WARNING: FENE bond too long: 216 270038 270101 1.4790206 (src/OPENMP/bond_fene_omp.cpp:116)
WARNING: FENE bond too long: 216 51815 51716 1.4362033 (src/OPENMP/bond_fene_omp.cpp:116)
WARNING: FENE bond too long: 216 51816 51815 1.5110696 (src/OPENMP/bond_fene_omp.cpp:116)
WARNING: FENE bond too long: 216 246179 246178 1.4533133 (src/OPENMP/bond_fene_omp.cpp:116)
WARNING: FENE bond too long: 217 5616 5622 1.5101368 (src/OPENMP/bond_fene_omp.cpp:116)
WARNING: FENE bond too long: 217 22494 22406 1.5740745 (src/OPENMP/bond_fene_omp.cpp:116)
WARNING: FENE bond too long: 217 244965 244964 1.448804 (src/OPENMP/bond_fene_omp.cpp:116)
WARNING: FENE bond too long: 217 10319 10309 1.4480627 (src/OPENMP/bond_fene_omp.cpp:116)
WARNING: FENE bond too long: 217 270366 270367 1.5396944 (src/OPENMP/bond_fene_omp.cpp:116)
WARNING: FENE bond too long: 217 161742 161732 1.4716675 (src/OPENMP/bond_fene_omp.cpp:116)
WARNING: FENE bond too long: 217 161639 161742 1.4493508 (src/OPENMP/bond_fene_omp.cpp:116)
WARNING: FENE bond too long: 217 270038 270101 1.4587152 (src/OPENMP/bond_fene_omp.cpp:116)
WARNING: FENE bond too long: 217 51815 51716 1.4562864 (src/OPENMP/bond_fene_omp.cpp:116)
WARNING: FENE bond too long: 217 395742 395691 1.5082353 (src/OPENMP/bond_fene_omp.cpp:116)
WARNING: FENE bond too long: 217 51816 51815 1.5033018 (src/OPENMP/bond_fene_omp.cpp:116)
WARNING: FENE bond too long: 217 382727 382724 1.4315847 (src/OPENMP/bond_fene_omp.cpp:116)
WARNING: FENE bond too long: 218 244965 244964 1.4599753 (src/OPENMP/bond_fene_omp.cpp:116)
WARNING: FENE bond too long: 218 22494 22406 1.5852323 (src/OPENMP/bond_fene_omp.cpp:116)
WARNING: FENE bond too long: 218 270366 270367 1.5491452 (src/OPENMP/bond_fene_omp.cpp:116)
WARNING: FENE bond too long: 218 5616 5622 1.476798 (src/OPENMP/bond_fene_omp.cpp:116)
WARNING: FENE bond too long: 218 161742 161732 1.4818378 (src/OPENMP/bond_fene_omp.cpp:116)
WARNING: FENE bond too long: 218 382727 382724 1.4371396 (src/OPENMP/bond_fene_omp.cpp:116)
WARNING: FENE bond too long: 218 395742 395691 1.5339581 (src/OPENMP/bond_fene_omp.cpp:116)
WARNING: FENE bond too long: 218 161639 161742 1.4620105 (src/OPENMP/bond_fene_omp.cpp:116)
WARNING: FENE bond too long: 218 270038 270101 1.4423289 (src/OPENMP/bond_fene_omp.cpp:116)
WARNING: FENE bond too long: 218 51815 51716 1.4722359 (src/OPENMP/bond_fene_omp.cpp:116)
WARNING: FENE bond too long: 218 51816 51815 1.4845845 (src/OPENMP/bond_fene_omp.cpp:116)
WARNING: FENE bond too long: 219 22494 22406 1.5918519 (src/OPENMP/bond_fene_omp.cpp:116)
WARNING: FENE bond too long: 219 244965 244964 1.4758342 (src/OPENMP/bond_fene_omp.cpp:116)
WARNING: FENE bond too long: 219 5616 5622 1.4468054 (src/OPENMP/bond_fene_omp.cpp:116)
WARNING: FENE bond too long: 219 270366 270367 1.5536763 (src/OPENMP/bond_fene_omp.cpp:116)
WARNING: FENE bond too long: 219 161742 161732 1.4878503 (src/OPENMP/bond_fene_omp.cpp:116)
WARNING: FENE bond too long: 219 161639 161742 1.4740103 (src/OPENMP/bond_fene_omp.cpp:116)
WARNING: FENE bond too long: 219 270038 270101 1.4312403 (src/OPENMP/bond_fene_omp.cpp:116)
WARNING: FENE bond too long: 219 51815 51716 1.4827157 (src/OPENMP/bond_fene_omp.cpp:116)
WARNING: FENE bond too long: 219 395742 395691 1.5586845 (src/OPENMP/bond_fene_omp.cpp:116)
WARNING: FENE bond too long: 219 382727 382724 1.4469179 (src/OPENMP/bond_fene_omp.cpp:116)
WARNING: FENE bond too long: 220 244965 244964 1.4941725 (src/OPENMP/bond_fene_omp.cpp:116)
WARNING: FENE bond too long: 220 22494 22406 1.5932644 (src/OPENMP/bond_fene_omp.cpp:116)
WARNING: FENE bond too long: 220 270366 270367 1.5520636 (src/OPENMP/bond_fene_omp.cpp:116)
WARNING: FENE bond too long: 220 161742 161732 1.4893071 (src/OPENMP/bond_fene_omp.cpp:116)
WARNING: FENE bond too long: 220 161639 161742 1.4845349 (src/OPENMP/bond_fene_omp.cpp:116)
WARNING: FENE bond too long: 220 382727 382724 1.4605936 (src/OPENMP/bond_fene_omp.cpp:116)
WARNING: FENE bond too long: 220 395742 395691 1.5802936 (src/OPENMP/bond_fene_omp.cpp:116)
WARNING: FENE bond too long: 220 270038 270101 1.4264112 (src/OPENMP/bond_fene_omp.cpp:116)
WARNING: FENE bond too long: 221 244965 244964 1.5116526 (src/OPENMP/bond_fene_omp.cpp:116)
WARNING: FENE bond too long: 221 22494 22406 1.5892582 (src/OPENMP/bond_fene_omp.cpp:116)
WARNING: FENE bond too long: 221 270366 270367 1.5436684 (src/OPENMP/bond_fene_omp.cpp:116)
WARNING: FENE bond too long: 221 161742 161732 1.4861958 (src/OPENMP/bond_fene_omp.cpp:116)
WARNING: FENE bond too long: 221 161639 161742 1.4928379 (src/OPENMP/bond_fene_omp.cpp:116)
WARNING: FENE bond too long: 221 395742 395691 1.5968 (src/OPENMP/bond_fene_omp.cpp:116)
WARNING: FENE bond too long: 221 382727 382724 1.4774817 (src/OPENMP/bond_fene_omp.cpp:116)
WARNING: FENE bond too long: 221 270038 270101 1.4283683 (src/OPENMP/bond_fene_omp.cpp:116)
WARNING: FENE bond too long: 221 246179 246178 1.433396 (src/OPENMP/bond_fene_omp.cpp:116)
WARNING: FENE bond too long: 222 22494 22406 1.5800849 (src/OPENMP/bond_fene_omp.cpp:116)
WARNING: FENE bond too long: 222 244965 244964 1.5237672 (src/OPENMP/bond_fene_omp.cpp:116)
WARNING: FENE bond too long: 222 270366 270367 1.528777 (src/OPENMP/bond_fene_omp.cpp:116)
WARNING: FENE bond too long: 222 161742 161732 1.4788873 (src/OPENMP/bond_fene_omp.cpp:116)
WARNING: FENE bond too long: 222 161639 161742 1.4983231 (src/OPENMP/bond_fene_omp.cpp:116)
WARNING: FENE bond too long: 222 270038 270101 1.4370796 (src/OPENMP/bond_fene_omp.cpp:116)
WARNING: FENE bond too long: 222 395742 395691 1.6065479 (src/OPENMP/bond_fene_omp.cpp:116)
WARNING: FENE bond too long: 222 382727 382724 1.4965511 (src/OPENMP/bond_fene_omp.cpp:116)
WARNING: FENE bond too long: 222 246179 246178 1.471811 (src/OPENMP/bond_fene_omp.cpp:116)
WARNING: FENE bond too long: 223 244965 244964 1.5288291 (src/OPENMP/bond_fene_omp.cpp:116)
WARNING: FENE bond too long: 223 270366 270367 1.5087383 (src/OPENMP/bond_fene_omp.cpp:116)
WARNING: FENE bond too long: 223 22494 22406 1.5664443 (src/OPENMP/bond_fene_omp.cpp:116)
WARNING: FENE bond too long: 223 161742 161732 1.4681233 (src/OPENMP/bond_fene_omp.cpp:116)
WARNING: FENE bond too long: 223 161639 161742 1.5006357 (src/OPENMP/bond_fene_omp.cpp:116)
WARNING: FENE bond too long: 223 395742 395691 1.6084293 (src/OPENMP/bond_fene_omp.cpp:116)
WARNING: FENE bond too long: 223 10319 10309 1.4523872 (src/OPENMP/bond_fene_omp.cpp:116)
WARNING: FENE bond too long: 223 382727 382724 1.5165373 (src/OPENMP/bond_fene_omp.cpp:116)
WARNING: FENE bond too long: 223 270038 270101 1.4519249 (src/OPENMP/bond_fene_omp.cpp:116)
WARNING: FENE bond too long: 223 246179 246178 1.5160372 (src/OPENMP/bond_fene_omp.cpp:116)
WARNING: FENE bond too long: 224 244965 244964 1.5264069 (src/OPENMP/bond_fene_omp.cpp:116)
WARNING: FENE bond too long: 224 22494 22406 1.5494252 (src/OPENMP/bond_fene_omp.cpp:116)
WARNING: FENE bond too long: 224 5616 5622 1.4351252 (src/OPENMP/bond_fene_omp.cpp:116)
WARNING: FENE bond too long: 224 10319 10309 1.4911694 (src/OPENMP/bond_fene_omp.cpp:116)
WARNING: FENE bond too long: 224 270366 270367 1.485869 (src/OPENMP/bond_fene_omp.cpp:116)
WARNING: FENE bond too long: 224 395742 395691 1.6019935 (src/OPENMP/bond_fene_omp.cpp:116)
WARNING: FENE bond too long: 224 382727 382724 1.5359992 (src/OPENMP/bond_fene_omp.cpp:116)
WARNING: FENE bond too long: 224 270038 270101 1.471709 (src/OPENMP/bond_fene_omp.cpp:116)
WARNING: FENE bond too long: 224 161742 161732 1.4549402 (src/OPENMP/bond_fene_omp.cpp:116)
WARNING: FENE bond too long: 224 161639 161742 1.4996909 (src/OPENMP/bond_fene_omp.cpp:116)
WARNING: FENE bond too long: 224 246179 246178 1.5620924 (src/OPENMP/bond_fene_omp.cpp:116)
WARNING: FENE bond too long: 225 244965 244964 1.5169539 (src/OPENMP/bond_fene_omp.cpp:116)
WARNING: FENE bond too long: 225 22494 22406 1.530424 (src/OPENMP/bond_fene_omp.cpp:116)
WARNING: FENE bond too long: 225 10319 10309 1.5318844 (src/OPENMP/bond_fene_omp.cpp:116)
WARNING: FENE bond too long: 225 5616 5622 1.4636708 (src/OPENMP/bond_fene_omp.cpp:116)
WARNING: FENE bond too long: 225 161742 161732 1.4405677 (src/OPENMP/bond_fene_omp.cpp:116)
WARNING: FENE bond too long: 225 161639 161742 1.4956613 (src/OPENMP/bond_fene_omp.cpp:116)
WARNING: FENE bond too long: 225 270366 270367 1.4629948 (src/OPENMP/bond_fene_omp.cpp:116)
WARNING: FENE bond too long: 225 395742 395691 1.5874765 (src/OPENMP/bond_fene_omp.cpp:116)
WARNING: FENE bond too long: 225 382727 382724 1.5535085 (src/OPENMP/bond_fene_omp.cpp:116)
WARNING: FENE bond too long: 225 270038 270101 1.4948001 (src/OPENMP/bond_fene_omp.cpp:116)
WARNING: FENE bond too long: 225 246179 246178 1.6055729 (src/OPENMP/bond_fene_omp.cpp:116)
WARNING: FENE bond too long: 226 5616 5622 1.4968526 (src/OPENMP/bond_fene_omp.cpp:116)
WARNING: FENE bond too long: 226 22494 22406 1.51106 (src/OPENMP/bond_fene_omp.cpp:116)
WARNING: FENE bond too long: 226 10319 10309 1.5712749 (src/OPENMP/bond_fene_omp.cpp:116)
WARNING: FENE bond too long: 226 244965 244964 1.5016479 (src/OPENMP/bond_fene_omp.cpp:116)
WARNING: FENE bond too long: 226 270366 270367 1.4429569 (src/OPENMP/bond_fene_omp.cpp:116)
WARNING: FENE bond too long: 226 161742 161732 1.4263717 (src/OPENMP/bond_fene_omp.cpp:116)
WARNING: FENE bond too long: 226 161639 161742 1.489064 (src/OPENMP/bond_fene_omp.cpp:116)
WARNING: FENE bond too long: 226 270038 270101 1.5193036 (src/OPENMP/bond_fene_omp.cpp:116)
WARNING: FENE bond too long: 226 395742 395691 1.565761 (src/OPENMP/bond_fene_omp.cpp:116)
WARNING: FENE bond too long: 226 382727 382724 1.5676934 (src/OPENMP/bond_fene_omp.cpp:116)
WARNING: FENE bond too long: 226 246179 246178 1.6418579 (src/OPENMP/bond_fene_omp.cpp:116)
WARNING: FENE bond too long: 227 244965 244964 1.4821515 (src/OPENMP/bond_fene_omp.cpp:116)
WARNING: FENE bond too long: 227 22494 22406 1.4930062 (src/OPENMP/bond_fene_omp.cpp:116)
WARNING: FENE bond too long: 227 10319 10309 1.6062008 (src/OPENMP/bond_fene_omp.cpp:116)
WARNING: FENE bond too long: 227 5616 5622 1.5319052 (src/OPENMP/bond_fene_omp.cpp:116)
WARNING: FENE bond too long: 227 270366 270367 1.4282254 (src/OPENMP/bond_fene_omp.cpp:116)
WARNING: FENE bond too long: 227 395742 395691 1.5384268 (src/OPENMP/bond_fene_omp.cpp:116)
WARNING: FENE bond too long: 227 382727 382724 1.5772959 (src/OPENMP/bond_fene_omp.cpp:116)
WARNING: FENE bond too long: 227 161639 161742 1.4806082 (src/OPENMP/bond_fene_omp.cpp:116)
WARNING: FENE bond too long: 227 270038 270101 1.5431559 (src/OPENMP/bond_fene_omp.cpp:116)
WARNING: FENE bond too long: 227 246179 246178 1.6666286 (src/OPENMP/bond_fene_omp.cpp:116)
WARNING: FENE bond too long: 228 244965 244964 1.4604011 (src/OPENMP/bond_fene_omp.cpp:116)
WARNING: FENE bond too long: 228 22494 22406 1.4779031 (src/OPENMP/bond_fene_omp.cpp:116)
WARNING: FENE bond too long: 228 10319 10309 1.6339415 (src/OPENMP/bond_fene_omp.cpp:116)
WARNING: FENE bond too long: 228 5616 5622 1.5659608 (src/OPENMP/bond_fene_omp.cpp:116)
WARNING: FENE bond too long: 228 161639 161742 1.4720127 (src/OPENMP/bond_fene_omp.cpp:116)
WARNING: FENE bond too long: 228 382727 382724 1.5811828 (src/OPENMP/bond_fene_omp.cpp:116)
WARNING: FENE bond too long: 228 395742 395691 1.5077497 (src/OPENMP/bond_fene_omp.cpp:116)
WARNING: FENE bond too long: 228 270038 270101 1.5643057 (src/OPENMP/bond_fene_omp.cpp:116)
WARNING: FENE bond too long: 229 244965 244964 1.4384408 (src/OPENMP/bond_fene_omp.cpp:116)
WARNING: FENE bond too long: 229 22494 22406 1.4671615 (src/OPENMP/bond_fene_omp.cpp:116)
WARNING: FENE bond too long: 229 10319 10309 1.6522644 (src/OPENMP/bond_fene_omp.cpp:116)
WARNING: FENE bond too long: 229 5616 5622 1.5963335 (src/OPENMP/bond_fene_omp.cpp:116)
WARNING: FENE bond too long: 229 161639 161742 1.4645353 (src/OPENMP/bond_fene_omp.cpp:116)
WARNING: FENE bond too long: 229 270038 270101 1.5808182 (src/OPENMP/bond_fene_omp.cpp:116)
WARNING: FENE bond too long: 229 395742 395691 1.4763752 (src/OPENMP/bond_fene_omp.cpp:116)
WARNING: FENE bond too long: 229 382727 382724 1.5783164 (src/OPENMP/bond_fene_omp.cpp:116)
WARNING: FENE bond too long: 230 5616 5622 1.6206028 (src/OPENMP/bond_fene_omp.cpp:116)
WARNING: FENE bond too long: 230 22494 22406 1.4617933 (src/OPENMP/bond_fene_omp.cpp:116)
WARNING: FENE bond too long: 230 10319 10309 1.6595119 (src/OPENMP/bond_fene_omp.cpp:116)
WARNING: FENE bond too long: 230 161639 161742 1.4585975 (src/OPENMP/bond_fene_omp.cpp:116)
WARNING: FENE bond too long: 230 395742 395691 1.4471353 (src/OPENMP/bond_fene_omp.cpp:116)
WARNING: FENE bond too long: 230 270038 270101 1.5909149 (src/OPENMP/bond_fene_omp.cpp:116)
WARNING: FENE bond too long: 230 382727 382724 1.5676669 (src/OPENMP/bond_fene_omp.cpp:116)
WARNING: FENE bond too long: 231 5616 5622 1.6368248 (src/OPENMP/bond_fene_omp.cpp:116)
WARNING: FENE bond too long: 231 22494 22406 1.4622682 (src/OPENMP/bond_fene_omp.cpp:116)
WARNING: FENE bond too long: 231 10319 10309 1.6547122 (src/OPENMP/bond_fene_omp.cpp:116)
WARNING: FENE bond too long: 231 161639 161742 1.4538818 (src/OPENMP/bond_fene_omp.cpp:116)
WARNING: FENE bond too long: 231 270038 270101 1.593047 (src/OPENMP/bond_fene_omp.cpp:116)
WARNING: FENE bond too long: 231 161742 161732 1.4266353 (src/OPENMP/bond_fene_omp.cpp:116)
WARNING: FENE bond too long: 231 382727 382724 1.5482348 (src/OPENMP/bond_fene_omp.cpp:116)
WARNING: FENE bond too long: 232 22494 22406 1.4685004 (src/OPENMP/bond_fene_omp.cpp:116)
WARNING: FENE bond too long: 232 161639 161742 1.4496679 (src/OPENMP/bond_fene_omp.cpp:116)
WARNING: FENE bond too long: 232 10319 10309 1.6377799 (src/OPENMP/bond_fene_omp.cpp:116)
WARNING: FENE bond too long: 232 5616 5622 1.6436492 (src/OPENMP/bond_fene_omp.cpp:116)
WARNING: FENE bond too long: 232 382727 382724 1.5200915 (src/OPENMP/bond_fene_omp.cpp:116)
WARNING: FENE bond too long: 232 161742 161732 1.4428089 (src/OPENMP/bond_fene_omp.cpp:116)
WARNING: FENE bond too long: 233 5616 5622 1.6404894 (src/OPENMP/bond_fene_omp.cpp:116)
WARNING: FENE bond too long: 233 22494 22406 1.4798511 (src/OPENMP/bond_fene_omp.cpp:116)
WARNING: FENE bond too long: 233 10319 10309 1.6097482 (src/OPENMP/bond_fene_omp.cpp:116)
WARNING: FENE bond too long: 233 382727 382724 1.4857246 (src/OPENMP/bond_fene_omp.cpp:116)
WARNING: FENE bond too long: 233 161639 161742 1.4462047 (src/OPENMP/bond_fene_omp.cpp:116)
WARNING: FENE bond too long: 233 161742 161732 1.4609096 (src/OPENMP/bond_fene_omp.cpp:116)
WARNING: FENE bond too long: 234 22494 22406 1.4951837 (src/OPENMP/bond_fene_omp.cpp:116)
WARNING: FENE bond too long: 234 10319 10309 1.5728497 (src/OPENMP/bond_fene_omp.cpp:116)
WARNING: FENE bond too long: 234 5616 5622 1.6276411 (src/OPENMP/bond_fene_omp.cpp:116)
WARNING: FENE bond too long: 234 161639 161742 1.4437904 (src/OPENMP/bond_fene_omp.cpp:116)
WARNING: FENE bond too long: 234 382727 382724 1.4498431 (src/OPENMP/bond_fene_omp.cpp:116)
WARNING: FENE bond too long: 234 161742 161732 1.4798544 (src/OPENMP/bond_fene_omp.cpp:116)
WARNING: FENE bond too long: 235 244965 244964 1.4345367 (src/OPENMP/bond_fene_omp.cpp:116)
WARNING: FENE bond too long: 235 22494 22406 1.5128412 (src/OPENMP/bond_fene_omp.cpp:116)
WARNING: FENE bond too long: 235 5616 5622 1.6062352 (src/OPENMP/bond_fene_omp.cpp:116)
WARNING: FENE bond too long: 235 10319 10309 1.5304586 (src/OPENMP/bond_fene_omp.cpp:116)
WARNING: FENE bond too long: 235 161639 161742 1.442741 (src/OPENMP/bond_fene_omp.cpp:116)
WARNING: FENE bond too long: 235 395742 395691 1.4329438 (src/OPENMP/bond_fene_omp.cpp:116)
WARNING: FENE bond too long: 235 161742 161732 1.4984787 (src/OPENMP/bond_fene_omp.cpp:116)
WARNING: FENE bond too long: 236 5616 5622 1.5781668 (src/OPENMP/bond_fene_omp.cpp:116)
WARNING: FENE bond too long: 236 22494 22406 1.5307339 (src/OPENMP/bond_fene_omp.cpp:116)
WARNING: FENE bond too long: 236 244965 244964 1.456347 (src/OPENMP/bond_fene_omp.cpp:116)
WARNING: FENE bond too long: 236 10319 10309 1.4866529 (src/OPENMP/bond_fene_omp.cpp:116)
WARNING: FENE bond too long: 236 161639 161742 1.4433425 (src/OPENMP/bond_fene_omp.cpp:116)
WARNING: FENE bond too long: 236 161742 161732 1.5155898 (src/OPENMP/bond_fene_omp.cpp:116)
WARNING: FENE bond too long: 236 395742 395691 1.461442 (src/OPENMP/bond_fene_omp.cpp:116)
WARNING: FENE bond too long: 237 244965 244964 1.4776893 (src/OPENMP/bond_fene_omp.cpp:116)
WARNING: FENE bond too long: 237 22494 22406 1.5463518 (src/OPENMP/bond_fene_omp.cpp:116)
WARNING: FENE bond too long: 237 5616 5622 1.5459418 (src/OPENMP/bond_fene_omp.cpp:116)
WARNING: FENE bond too long: 237 395742 395691 1.4943829 (src/OPENMP/bond_fene_omp.cpp:116)
WARNING: FENE bond too long: 237 10319 10309 1.4457898 (src/OPENMP/bond_fene_omp.cpp:116)
WARNING: FENE bond too long: 237 161639 161742 1.4457392 (src/OPENMP/bond_fene_omp.cpp:116)
WARNING: FENE bond too long: 237 161742 161732 1.5300309 (src/OPENMP/bond_fene_omp.cpp:116)
WARNING: FENE bond too long: 238 22494 22406 1.5569141 (src/OPENMP/bond_fene_omp.cpp:116)
WARNING: FENE bond too long: 238 244965 244964 1.4964742 (src/OPENMP/bond_fene_omp.cpp:116)
WARNING: FENE bond too long: 238 5616 5622 1.5124756 (src/OPENMP/bond_fene_omp.cpp:116)
WARNING: FENE bond too long: 238 161639 161742 1.4499154 (src/OPENMP/bond_fene_omp.cpp:116)
WARNING: FENE bond too long: 238 395742 395691 1.5286934 (src/OPENMP/bond_fene_omp.cpp:116)
WARNING: FENE bond too long: 238 161742 161732 1.5407394 (src/OPENMP/bond_fene_omp.cpp:116)
WARNING: FENE bond too long: 239 244965 244964 1.5108434 (src/OPENMP/bond_fene_omp.cpp:116)
WARNING: FENE bond too long: 239 22494 22406 1.5600251 (src/OPENMP/bond_fene_omp.cpp:116)
WARNING: FENE bond too long: 239 5616 5622 1.4807673 (src/OPENMP/bond_fene_omp.cpp:116)
WARNING: FENE bond too long: 239 161639 161742 1.4557034 (src/OPENMP/bond_fene_omp.cpp:116)
WARNING: FENE bond too long: 239 382727 382724 1.4276092 (src/OPENMP/bond_fene_omp.cpp:116)
WARNING: FENE bond too long: 239 161742 161732 1.5468521 (src/OPENMP/bond_fene_omp.cpp:116)
WARNING: FENE bond too long: 239 395742 395691 1.561131 (src/OPENMP/bond_fene_omp.cpp:116)
WARNING: FENE bond too long: 240 244965 244964 1.5194198 (src/OPENMP/bond_fene_omp.cpp:116)
WARNING: FENE bond too long: 240 22494 22406 1.5548494 (src/OPENMP/bond_fene_omp.cpp:116)
WARNING: FENE bond too long: 240 5616 5622 1.453696 (src/OPENMP/bond_fene_omp.cpp:116)
WARNING: FENE bond too long: 240 161639 161742 1.462791 (src/OPENMP/bond_fene_omp.cpp:116)
WARNING: FENE bond too long: 240 382727 382724 1.4644272 (src/OPENMP/bond_fene_omp.cpp:116)
WARNING: FENE bond too long: 240 161742 161732 1.5478313 (src/OPENMP/bond_fene_omp.cpp:116)
WARNING: FENE bond too long: 241 5616 5622 1.4336663 (src/OPENMP/bond_fene_omp.cpp:116)
WARNING: FENE bond too long: 241 22494 22406 1.5428127 (src/OPENMP/bond_fene_omp.cpp:116)
WARNING: FENE bond too long: 241 244965 244964 1.5215299 (src/OPENMP/bond_fene_omp.cpp:116)
WARNING: FENE bond too long: 241 161639 161742 1.4707272 (src/OPENMP/bond_fene_omp.cpp:116)
WARNING: FENE bond too long: 241 161742 161732 1.5434971 (src/OPENMP/bond_fene_omp.cpp:116)
WARNING: FENE bond too long: 241 382727 382724 1.5071183 (src/OPENMP/bond_fene_omp.cpp:116)
WARNING: FENE bond too long: 242 244965 244964 1.5172236 (src/OPENMP/bond_fene_omp.cpp:116)
WARNING: FENE bond too long: 242 22494 22406 1.5268578 (src/OPENMP/bond_fene_omp.cpp:116)
WARNING: FENE bond too long: 242 161639 161742 1.4789913 (src/OPENMP/bond_fene_omp.cpp:116)
WARNING: FENE bond too long: 242 10319 10309 1.4349285 (src/OPENMP/bond_fene_omp.cpp:116)
WARNING: FENE bond too long: 242 382727 382724 1.5519657 (src/OPENMP/bond_fene_omp.cpp:116)
WARNING: FENE bond too long: 242 161742 161732 1.5340598 (src/OPENMP/bond_fene_omp.cpp:116)
WARNING: FENE bond too long: 243 244965 244964 1.5072209 (src/OPENMP/bond_fene_omp.cpp:116)
WARNING: FENE bond too long: 243 22494 22406 1.5101375 (src/OPENMP/bond_fene_omp.cpp:116)
WARNING: FENE bond too long: 243 10319 10309 1.4753353 (src/OPENMP/bond_fene_omp.cpp:116)
WARNING: FENE bond too long: 243 382727 382724 1.5950436 (src/OPENMP/bond_fene_omp.cpp:116)
WARNING: FENE bond too long: 243 161639 161742 1.4870766 (src/OPENMP/bond_fene_omp.cpp:116)
WARNING: FENE bond too long: 243 161742 161732 1.5201808 (src/OPENMP/bond_fene_omp.cpp:116)
WARNING: FENE bond too long: 244 244965 244964 1.4928934 (src/OPENMP/bond_fene_omp.cpp:116)
WARNING: FENE bond too long: 244 22494 22406 1.4954197 (src/OPENMP/bond_fene_omp.cpp:116)
WARNING: FENE bond too long: 244 10319 10309 1.5213714 (src/OPENMP/bond_fene_omp.cpp:116)
WARNING: FENE bond too long: 244 5616 5622 1.4302707 (src/OPENMP/bond_fene_omp.cpp:116)
WARNING: FENE bond too long: 244 161639 161742 1.4945748 (src/OPENMP/bond_fene_omp.cpp:116)
WARNING: FENE bond too long: 244 382727 382724 1.6325076 (src/OPENMP/bond_fene_omp.cpp:116)
WARNING: FENE bond too long: 244 161742 161732 1.5029569 (src/OPENMP/bond_fene_omp.cpp:116)
WARNING: FENE bond too long: 245 5616 5622 1.448179 (src/OPENMP/bond_fene_omp.cpp:116)
WARNING: FENE bond too long: 245 22494 22406 1.4847986 (src/OPENMP/bond_fene_omp.cpp:116)
WARNING: FENE bond too long: 245 244965 244964 1.4760798 (src/OPENMP/bond_fene_omp.cpp:116)
WARNING: FENE bond too long: 245 10319 10309 1.5690572 (src/OPENMP/bond_fene_omp.cpp:116)
WARNING: FENE bond too long: 245 161742 161732 1.4837834 (src/OPENMP/bond_fene_omp.cpp:116)
WARNING: FENE bond too long: 245 382727 382724 1.6610927 (src/OPENMP/bond_fene_omp.cpp:116)
WARNING: FENE bond too long: 246 244965 244964 1.4587897 (src/OPENMP/bond_fene_omp.cpp:116)
WARNING: FENE bond too long: 246 22494 22406 1.4796803 (src/OPENMP/bond_fene_omp.cpp:116)
WARNING: FENE bond too long: 246 5616 5622 1.4731491 (src/OPENMP/bond_fene_omp.cpp:116)
WARNING: FENE bond too long: 246 10319 10309 1.6141329 (src/OPENMP/bond_fene_omp.cpp:116)
WARNING: FENE bond too long: 246 382727 382724 1.6784289 (src/OPENMP/bond_fene_omp.cpp:116)
WARNING: FENE bond too long: 246 161742 161732 1.4642033 (src/OPENMP/bond_fene_omp.cpp:116)
WARNING: FENE bond too long: 247 22494 22406 1.4807858 (src/OPENMP/bond_fene_omp.cpp:116)
WARNING: FENE bond too long: 247 244965 244964 1.4430757 (src/OPENMP/bond_fene_omp.cpp:116)
WARNING: FENE bond too long: 247 5616 5622 1.5030081 (src/OPENMP/bond_fene_omp.cpp:116)
WARNING: FENE bond too long: 247 382727 382724 1.6831002 (src/OPENMP/bond_fene_omp.cpp:116)
WARNING: FENE bond too long: 247 161742 161732 1.4457222 (src/OPENMP/bond_fene_omp.cpp:116)
WARNING: FENE bond too long: 248 244965 244964 1.4309045 (src/OPENMP/bond_fene_omp.cpp:116)
WARNING: FENE bond too long: 248 22494 22406 1.4881808 (src/OPENMP/bond_fene_omp.cpp:116)
WARNING: FENE bond too long: 248 5616 5622 1.5352048 (src/OPENMP/bond_fene_omp.cpp:116)
WARNING: FENE bond too long: 248 382727 382724 1.6746245 (src/OPENMP/bond_fene_omp.cpp:116)
WARNING: FENE bond too long: 248 161742 161732 1.4296862 (src/OPENMP/bond_fene_omp.cpp:116)
WARNING: FENE bond too long: 249 5616 5622 1.5668819 (src/OPENMP/bond_fene_omp.cpp:116)
WARNING: FENE bond too long: 249 22494 22406 1.5012558 (src/OPENMP/bond_fene_omp.cpp:116)
WARNING: FENE bond too long: 249 244965 244964 1.4238868 (src/OPENMP/bond_fene_omp.cpp:116)
WARNING: FENE bond too long: 250 244965 244964 1.4231246 (src/OPENMP/bond_fene_omp.cpp:116)
WARNING: FENE bond too long: 250 22494 22406 1.5187945 (src/OPENMP/bond_fene_omp.cpp:116)
WARNING: FENE bond too long: 250 5616 5622 1.595182 (src/OPENMP/bond_fene_omp.cpp:116)
WARNING: FENE bond too long: 251 244965 244964 1.4291456 (src/OPENMP/bond_fene_omp.cpp:116)
WARNING: FENE bond too long: 251 22494 22406 1.5392147 (src/OPENMP/bond_fene_omp.cpp:116)
WARNING: FENE bond too long: 251 5616 5622 1.6174336 (src/OPENMP/bond_fene_omp.cpp:116)
WARNING: FENE bond too long: 252 244965 244964 1.4418514 (src/OPENMP/bond_fene_omp.cpp:116)
WARNING: FENE bond too long: 252 5616 5622 1.631395 (src/OPENMP/bond_fene_omp.cpp:116)
WARNING: FENE bond too long: 253 244965 244964 1.4604951 (src/OPENMP/bond_fene_omp.cpp:116)
WARNING: FENE bond too long: 253 5616 5622 1.6356335 (src/OPENMP/bond_fene_omp.cpp:116)
WARNING: FENE bond too long: 254 5616 5622 1.629667 (src/OPENMP/bond_fene_omp.cpp:116)
WARNING: FENE bond too long: 254 244965 244964 1.4836622 (src/OPENMP/bond_fene_omp.cpp:116)
WARNING: FENE bond too long: 254 161639 161742 1.5021476 (src/OPENMP/bond_fene_omp.cpp:116)
WARNING: FENE bond too long: 255 244965 244964 1.5094103 (src/OPENMP/bond_fene_omp.cpp:116)
WARNING: FENE bond too long: 255 5616 5622 1.6142215 (src/OPENMP/bond_fene_omp.cpp:116)
WARNING: FENE bond too long: 255 161639 161742 1.4963056 (src/OPENMP/bond_fene_omp.cpp:116)
WARNING: FENE bond too long: 256 244965 244964 1.5354132 (src/OPENMP/bond_fene_omp.cpp:116)
WARNING: FENE bond too long: 256 161639 161742 1.4912079 (src/OPENMP/bond_fene_omp.cpp:116)
WARNING: FENE bond too long: 257 244965 244964 1.5591821 (src/OPENMP/bond_fene_omp.cpp:116)
WARNING: FENE bond too long: 257 161639 161742 1.4876333 (src/OPENMP/bond_fene_omp.cpp:116)
WARNING: FENE bond too long: 258 244965 244964 1.5783531 (src/OPENMP/bond_fene_omp.cpp:116)
WARNING: FENE bond too long: 258 161639 161742 1.4861544 (src/OPENMP/bond_fene_omp.cpp:116)
WARNING: FENE bond too long: 259 244965 244964 1.5909564 (src/OPENMP/bond_fene_omp.cpp:116)
WARNING: FENE bond too long: 259 161639 161742 1.4870547 (src/OPENMP/bond_fene_omp.cpp:116)
WARNING: FENE bond too long: 260 244965 244964 1.5956654 (src/OPENMP/bond_fene_omp.cpp:116)
WARNING: FENE bond too long: 260 161639 161742 1.4903217 (src/OPENMP/bond_fene_omp.cpp:116)
WARNING: FENE bond too long: 261 244965 244964 1.5920613 (src/OPENMP/bond_fene_omp.cpp:116)
WARNING: FENE bond too long: 261 161639 161742 1.4956533 (src/OPENMP/bond_fene_omp.cpp:116)
WARNING: FENE bond too long: 262 244965 244964 1.5806084 (src/OPENMP/bond_fene_omp.cpp:116)
WARNING: FENE bond too long: 262 161639 161742 1.5024894 (src/OPENMP/bond_fene_omp.cpp:116)
WARNING: FENE bond too long: 263 244965 244964 1.5625115 (src/OPENMP/bond_fene_omp.cpp:116)
WARNING: FENE bond too long: 263 161639 161742 1.5100948 (src/OPENMP/bond_fene_omp.cpp:116)
WARNING: FENE bond too long: 264 244965 244964 1.5394957 (src/OPENMP/bond_fene_omp.cpp:116)
WARNING: FENE bond too long: 264 161639 161742 1.5176584 (src/OPENMP/bond_fene_omp.cpp:116)
WARNING: FENE bond too long: 265 244965 244964 1.5137017 (src/OPENMP/bond_fene_omp.cpp:116)
WARNING: FENE bond too long: 265 161639 161742 1.5243243 (src/OPENMP/bond_fene_omp.cpp:116)
WARNING: FENE bond too long: 266 244965 244964 1.4874988 (src/OPENMP/bond_fene_omp.cpp:116)
WARNING: FENE bond too long: 266 161639 161742 1.5293208 (src/OPENMP/bond_fene_omp.cpp:116)
WARNING: FENE bond too long: 267 244965 244964 1.4632391 (src/OPENMP/bond_fene_omp.cpp:116)
WARNING: FENE bond too long: 267 161639 161742 1.5320398 (src/OPENMP/bond_fene_omp.cpp:116)
WARNING: FENE bond too long: 268 244965 244964 1.4432601 (src/OPENMP/bond_fene_omp.cpp:116)
WARNING: FENE bond too long: 268 161639 161742 1.5321695 (src/OPENMP/bond_fene_omp.cpp:116)
WARNING: FENE bond too long: 269 244965 244964 1.429555 (src/OPENMP/bond_fene_omp.cpp:116)
WARNING: FENE bond too long: 269 161639 161742 1.5295559 (src/OPENMP/bond_fene_omp.cpp:116)
WARNING: FENE bond too long: 270 244965 244964 1.4235704 (src/OPENMP/bond_fene_omp.cpp:116)
WARNING: FENE bond too long: 270 161639 161742 1.5242194 (src/OPENMP/bond_fene_omp.cpp:116)
WARNING: FENE bond too long: 271 244965 244964 1.4260813 (src/OPENMP/bond_fene_omp.cpp:116)
WARNING: FENE bond too long: 271 161639 161742 1.5164142 (src/OPENMP/bond_fene_omp.cpp:116)
WARNING: FENE bond too long: 272 244965 244964 1.4371091 (src/OPENMP/bond_fene_omp.cpp:116)
WARNING: FENE bond too long: 272 161639 161742 1.506645 (src/OPENMP/bond_fene_omp.cpp:116)
WARNING: FENE bond too long: 273 244965 244964 1.4558133 (src/OPENMP/bond_fene_omp.cpp:116)
WARNING: FENE bond too long: 273 161639 161742 1.4956392 (src/OPENMP/bond_fene_omp.cpp:116)
WARNING: FENE bond too long: 273 161742 161732 1.4786128 (src/OPENMP/bond_fene_omp.cpp:116)
WARNING: FENE bond too long: 274 244965 244964 1.4804615 (src/OPENMP/bond_fene_omp.cpp:116)
WARNING: FENE bond too long: 274 161639 161742 1.4842952 (src/OPENMP/bond_fene_omp.cpp:116)
WARNING: FENE bond too long: 274 161742 161732 1.4877658 (src/OPENMP/bond_fene_omp.cpp:116)
WARNING: FENE bond too long: 275 244965 244964 1.5085034 (src/OPENMP/bond_fene_omp.cpp:116)
WARNING: FENE bond too long: 275 161639 161742 1.473639 (src/OPENMP/bond_fene_omp.cpp:116)
WARNING: FENE bond too long: 275 161742 161732 1.499309 (src/OPENMP/bond_fene_omp.cpp:116)
WARNING: FENE bond too long: 276 244965 244964 1.5368133 (src/OPENMP/bond_fene_omp.cpp:116)
WARNING: FENE bond too long: 276 161639 161742 1.4647485 (src/OPENMP/bond_fene_omp.cpp:116)
WARNING: FENE bond too long: 276 161742 161732 1.5126439 (src/OPENMP/bond_fene_omp.cpp:116)
WARNING: FENE bond too long: 277 244965 244964 1.5619949 (src/OPENMP/bond_fene_omp.cpp:116)
WARNING: FENE bond too long: 277 161639 161742 1.4586646 (src/OPENMP/bond_fene_omp.cpp:116)
WARNING: FENE bond too long: 277 161742 161732 1.5270178 (src/OPENMP/bond_fene_omp.cpp:116)
WARNING: FENE bond too long: 278 244965 244964 1.5806823 (src/OPENMP/bond_fene_omp.cpp:116)
WARNING: FENE bond too long: 278 161742 161732 1.5415065 (src/OPENMP/bond_fene_omp.cpp:116)
WARNING: FENE bond too long: 278 161639 161742 1.4562426 (src/OPENMP/bond_fene_omp.cpp:116)
WARNING: FENE bond too long: 279 161742 161732 1.5550463 (src/OPENMP/bond_fene_omp.cpp:116)
WARNING: FENE bond too long: 279 161639 161742 1.4579468 (src/OPENMP/bond_fene_omp.cpp:116)
WARNING: FENE bond too long: 280 161742 161732 1.5665094 (src/OPENMP/bond_fene_omp.cpp:116)
WARNING: FENE bond too long: 280 161639 161742 1.4638789 (src/OPENMP/bond_fene_omp.cpp:116)
WARNING: FENE bond too long: 281 161742 161732 1.574846 (src/OPENMP/bond_fene_omp.cpp:116)
WARNING: FENE bond too long: 281 161639 161742 1.4737174 (src/OPENMP/bond_fene_omp.cpp:116)
WARNING: FENE bond too long: 282 161742 161732 1.5791856 (src/OPENMP/bond_fene_omp.cpp:116)
WARNING: FENE bond too long: 282 161639 161742 1.4867145 (src/OPENMP/bond_fene_omp.cpp:116)
WARNING: FENE bond too long: 283 161742 161732 1.5789534 (src/OPENMP/bond_fene_omp.cpp:116)
WARNING: FENE bond too long: 283 161639 161742 1.5017793 (src/OPENMP/bond_fene_omp.cpp:116)
WARNING: FENE bond too long: 284 161742 161732 1.5739947 (src/OPENMP/bond_fene_omp.cpp:116)
WARNING: FENE bond too long: 284 161639 161742 1.5176152 (src/OPENMP/bond_fene_omp.cpp:116)
WARNING: FENE bond too long: 285 161742 161732 1.564595 (src/OPENMP/bond_fene_omp.cpp:116)
WARNING: FENE bond too long: 285 161639 161742 1.5328123 (src/OPENMP/bond_fene_omp.cpp:116)
WARNING: FENE bond too long: 286 161742 161732 1.5515037 (src/OPENMP/bond_fene_omp.cpp:116)
WARNING: FENE bond too long: 286 161639 161742 1.5460145 (src/OPENMP/bond_fene_omp.cpp:116)
WARNING: FENE bond too long: 287 161742 161732 1.5358664 (src/OPENMP/bond_fene_omp.cpp:116)
WARNING: FENE bond too long: 287 161639 161742 1.5560108 (src/OPENMP/bond_fene_omp.cpp:116)
WARNING: FENE bond too long: 288 161742 161732 1.5191442 (src/OPENMP/bond_fene_omp.cpp:116)
WARNING: FENE bond too long: 288 161639 161742 1.5619115 (src/OPENMP/bond_fene_omp.cpp:116)
WARNING: FENE bond too long: 289 161742 161732 1.5029745 (src/OPENMP/bond_fene_omp.cpp:116)
WARNING: FENE bond too long: 289 161639 161742 1.56334 (src/OPENMP/bond_fene_omp.cpp:116)
WARNING: FENE bond too long: 290 161742 161732 1.4889716 (src/OPENMP/bond_fene_omp.cpp:116)
WARNING: FENE bond too long: 290 161639 161742 1.5606378 (src/OPENMP/bond_fene_omp.cpp:116)
WARNING: FENE bond too long: 291 161742 161732 1.4785517 (src/OPENMP/bond_fene_omp.cpp:116)
WARNING: FENE bond too long: 291 161639 161742 1.5546762 (src/OPENMP/bond_fene_omp.cpp:116)
WARNING: FENE bond too long: 292 161742 161732 1.472816 (src/OPENMP/bond_fene_omp.cpp:116)
WARNING: FENE bond too long: 292 161639 161742 1.5467017 (src/OPENMP/bond_fene_omp.cpp:116)
WARNING: FENE bond too long: 293 161742 161732 1.4724253 (src/OPENMP/bond_fene_omp.cpp:116)
WARNING: FENE bond too long: 293 161639 161742 1.5381364 (src/OPENMP/bond_fene_omp.cpp:116)
WARNING: FENE bond too long: 294 161742 161732 1.4775409 (src/OPENMP/bond_fene_omp.cpp:116)
WARNING: FENE bond too long: 294 161639 161742 1.5302728 (src/OPENMP/bond_fene_omp.cpp:116)
WARNING: FENE bond too long: 295 161742 161732 1.4878181 (src/OPENMP/bond_fene_omp.cpp:116)
WARNING: FENE bond too long: 295 161639 161742 1.5241427 (src/OPENMP/bond_fene_omp.cpp:116)
WARNING: FENE bond too long: 296 161742 161732 1.5024399 (src/OPENMP/bond_fene_omp.cpp:116)
WARNING: FENE bond too long: 296 161639 161742 1.5204802 (src/OPENMP/bond_fene_omp.cpp:116)
WARNING: FENE bond too long: 297 161742 161732 1.520184 (src/OPENMP/bond_fene_omp.cpp:116)
WARNING: FENE bond too long: 297 161639 161742 1.5196873 (src/OPENMP/bond_fene_omp.cpp:116)
WARNING: FENE bond too long: 298 161742 161732 1.5394247 (src/OPENMP/bond_fene_omp.cpp:116)
WARNING: FENE bond too long: 298 161639 161742 1.5218423 (src/OPENMP/bond_fene_omp.cpp:116)
WARNING: FENE bond too long: 299 161742 161732 1.5582202 (src/OPENMP/bond_fene_omp.cpp:116)
WARNING: FENE bond too long: 300 51816 51815 1.570023 (src/OPENMP/bond_fene_omp.cpp:116)
WARNING: FENE bond too long: 301 51816 51815 1.5756095 (src/OPENMP/bond_fene_omp.cpp:116)
WARNING: FENE bond too long: 302 51816 51815 1.5798505 (src/OPENMP/bond_fene_omp.cpp:116)
WARNING: FENE bond too long: 303 51816 51815 1.5815834 (src/OPENMP/bond_fene_omp.cpp:116)
WARNING: FENE bond too long: 304 51816 51815 1.5799717 (src/OPENMP/bond_fene_omp.cpp:116)
WARNING: FENE bond too long: 305 51816 51815 1.5746756 (src/OPENMP/bond_fene_omp.cpp:116)
WARNING: FENE bond too long: 306 51816 51815 1.5658389 (src/OPENMP/bond_fene_omp.cpp:116)
WARNING: FENE bond too long: 307 51816 51815 1.5540841 (src/OPENMP/bond_fene_omp.cpp:116)
WARNING: FENE bond too long: 308 51816 51815 1.5404498 (src/OPENMP/bond_fene_omp.cpp:116)
WARNING: FENE bond too long: 309 51816 51815 1.5262281 (src/OPENMP/bond_fene_omp.cpp:116)
WARNING: FENE bond too long: 310 51816 51815 1.5128498 (src/OPENMP/bond_fene_omp.cpp:116)
WARNING: FENE bond too long: 311 51816 51815 1.501705 (src/OPENMP/bond_fene_omp.cpp:116)
WARNING: FENE bond too long: 312 51816 51815 1.4939462 (src/OPENMP/bond_fene_omp.cpp:116)
WARNING: FENE bond too long: 313 51816 51815 1.4904118 (src/OPENMP/bond_fene_omp.cpp:116)
WARNING: FENE bond too long: 314 51816 51815 1.4914926 (src/OPENMP/bond_fene_omp.cpp:116)
WARNING: FENE bond too long: 315 51816 51815 1.4970446 (src/OPENMP/bond_fene_omp.cpp:116)
WARNING: FENE bond too long: 315 51815 51716 1.5144962 (src/OPENMP/bond_fene_omp.cpp:116)
WARNING: FENE bond too long: 316 51816 51815 1.5063888 (src/OPENMP/bond_fene_omp.cpp:116)
WARNING: FENE bond too long: 316 51815 51716 1.5397178 (src/OPENMP/bond_fene_omp.cpp:116)
WARNING: FENE bond too long: 317 51816 51815 1.5183889 (src/OPENMP/bond_fene_omp.cpp:116)
WARNING: FENE bond too long: 317 51815 51716 1.5694406 (src/OPENMP/bond_fene_omp.cpp:116)
WARNING: FENE bond too long: 318 51816 51815 1.5315733 (src/OPENMP/bond_fene_omp.cpp:116)
WARNING: FENE bond too long: 318 51815 51716 1.5998307 (src/OPENMP/bond_fene_omp.cpp:116)
WARNING: FENE bond too long: 319 51816 51815 1.544315 (src/OPENMP/bond_fene_omp.cpp:116)
WARNING: FENE bond too long: 319 51815 51716 1.6267881 (src/OPENMP/bond_fene_omp.cpp:116)
WARNING: FENE bond too long: 320 51816 51815 1.5550891 (src/OPENMP/bond_fene_omp.cpp:116)
WARNING: FENE bond too long: 320 51815 51716 1.6466703 (src/OPENMP/bond_fene_omp.cpp:116)
WARNING: FENE bond too long: 321 51816 51815 1.5626519 (src/OPENMP/bond_fene_omp.cpp:116)
WARNING: FENE bond too long: 321 51815 51716 1.6569893 (src/OPENMP/bond_fene_omp.cpp:116)
WARNING: FENE bond too long: 322 51816 51815 1.5662436 (src/OPENMP/bond_fene_omp.cpp:116)
WARNING: FENE bond too long: 322 51815 51716 1.6568813 (src/OPENMP/bond_fene_omp.cpp:116)
WARNING: FENE bond too long: 323 51816 51815 1.5656068 (src/OPENMP/bond_fene_omp.cpp:116)
WARNING: FENE bond too long: 323 51815 51716 1.6467848 (src/OPENMP/bond_fene_omp.cpp:116)
WARNING: FENE bond too long: 324 51816 51815 1.5609346 (src/OPENMP/bond_fene_omp.cpp:116)
WARNING: FENE bond too long: 324 51815 51716 1.6281231 (src/OPENMP/bond_fene_omp.cpp:116)
WARNING: FENE bond too long: 325 51816 51815 1.5528311 (src/OPENMP/bond_fene_omp.cpp:116)
WARNING: FENE bond too long: 325 51815 51716 1.6030024 (src/OPENMP/bond_fene_omp.cpp:116)
WARNING: FENE bond too long: 326 51816 51815 1.5423635 (src/OPENMP/bond_fene_omp.cpp:116)
WARNING: FENE bond too long: 326 51815 51716 1.5742152 (src/OPENMP/bond_fene_omp.cpp:116)
WARNING: FENE bond too long: 327 51816 51815 1.531113 (src/OPENMP/bond_fene_omp.cpp:116)
WARNING: FENE bond too long: 327 51815 51716 1.5448995 (src/OPENMP/bond_fene_omp.cpp:116)
WARNING: FENE bond too long: 328 51816 51815 1.5211786 (src/OPENMP/bond_fene_omp.cpp:116)
WARNING: FENE bond too long: 328 51815 51716 1.5182222 (src/OPENMP/bond_fene_omp.cpp:116)
WARNING: FENE bond too long: 329 51816 51815 1.5148559 (src/OPENMP/bond_fene_omp.cpp:116)
WARNING: FENE bond too long: 329 51815 51716 1.4970774 (src/OPENMP/bond_fene_omp.cpp:116)
WARNING: FENE bond too long: 330 51816 51815 1.5141807 (src/OPENMP/bond_fene_omp.cpp:116)
WARNING: FENE bond too long: 330 51815 51716 1.4837202 (src/OPENMP/bond_fene_omp.cpp:116)
WARNING: FENE bond too long: 331 51816 51815 1.5204976 (src/OPENMP/bond_fene_omp.cpp:116)
WARNING: FENE bond too long: 331 51815 51716 1.4795072 (src/OPENMP/bond_fene_omp.cpp:116)
WARNING: FENE bond too long: 332 51816 51815 1.534171 (src/OPENMP/bond_fene_omp.cpp:116)
WARNING: FENE bond too long: 332 51815 51716 1.4847315 (src/OPENMP/bond_fene_omp.cpp:116)
WARNING: FENE bond too long: 333 51816 51815 1.5544755 (src/OPENMP/bond_fene_omp.cpp:116)
WARNING: FENE bond too long: 333 51815 51716 1.4985867 (src/OPENMP/bond_fene_omp.cpp:116)
WARNING: FENE bond too long: 334 51816 51815 1.5795881 (src/OPENMP/bond_fene_omp.cpp:116)
WARNING: FENE bond too long: 334 51815 51716 1.5192215 (src/OPENMP/bond_fene_omp.cpp:116)
WARNING: FENE bond too long: 335 51816 51815 1.6067648 (src/OPENMP/bond_fene_omp.cpp:116)
WARNING: FENE bond too long: 335 51815 51716 1.5439595 (src/OPENMP/bond_fene_omp.cpp:116)
WARNING: FENE bond too long: 336 51816 51815 1.632798 (src/OPENMP/bond_fene_omp.cpp:116)
WARNING: FENE bond too long: 336 51815 51716 1.5696601 (src/OPENMP/bond_fene_omp.cpp:116)
WARNING: FENE bond too long: 337 51816 51815 1.6545018 (src/OPENMP/bond_fene_omp.cpp:116)
WARNING: FENE bond too long: 337 51815 51716 1.5930955 (src/OPENMP/bond_fene_omp.cpp:116)
WARNING: FENE bond too long: 338 51816 51815 1.6691937 (src/OPENMP/bond_fene_omp.cpp:116)
WARNING: FENE bond too long: 338 51815 51716 1.6114089 (src/OPENMP/bond_fene_omp.cpp:116)
WARNING: FENE bond too long: 339 51816 51815 1.6751735 (src/OPENMP/bond_fene_omp.cpp:116)
WARNING: FENE bond too long: 339 51815 51716 1.6224008 (src/OPENMP/bond_fene_omp.cpp:116)
WARNING: FENE bond too long: 340 51816 51815 1.6717907 (src/OPENMP/bond_fene_omp.cpp:116)
WARNING: FENE bond too long: 340 51815 51716 1.6247451 (src/OPENMP/bond_fene_omp.cpp:116)
WARNING: FENE bond too long: 341 51816 51815 1.6594693 (src/OPENMP/bond_fene_omp.cpp:116)
WARNING: FENE bond too long: 341 51815 51716 1.6180839 (src/OPENMP/bond_fene_omp.cpp:116)
WARNING: FENE bond too long: 342 51816 51815 1.6396391 (src/OPENMP/bond_fene_omp.cpp:116)
WARNING: FENE bond too long: 342 51815 51716 1.6031564 (src/OPENMP/bond_fene_omp.cpp:116)
WARNING: FENE bond too long: 343 51816 51815 1.6145594 (src/OPENMP/bond_fene_omp.cpp:116)
WARNING: FENE bond too long: 343 51815 51716 1.5819048 (src/OPENMP/bond_fene_omp.cpp:116)
WARNING: FENE bond too long: 344 51816 51815 1.5870393 (src/OPENMP/bond_fene_omp.cpp:116)
WARNING: FENE bond too long: 344 51815 51716 1.5573547 (src/OPENMP/bond_fene_omp.cpp:116)
WARNING: FENE bond too long: 345 51816 51815 1.5601215 (src/OPENMP/bond_fene_omp.cpp:116)
WARNING: FENE bond too long: 345 51815 51716 1.5332712 (src/OPENMP/bond_fene_omp.cpp:116)
WARNING: FENE bond too long: 346 51816 51815 1.5368564 (src/OPENMP/bond_fene_omp.cpp:116)
WARNING: FENE bond too long: 346 51815 51716 1.5136196 (src/OPENMP/bond_fene_omp.cpp:116)
WARNING: FENE bond too long: 347 51816 51815 1.5199737 (src/OPENMP/bond_fene_omp.cpp:116)
WARNING: FENE bond too long: 347 51815 51716 1.5017593 (src/OPENMP/bond_fene_omp.cpp:116)
WARNING: FENE bond too long: 348 51816 51815 1.5114229 (src/OPENMP/bond_fene_omp.cpp:116)
WARNING: FENE bond too long: 348 51815 51716 1.4999675 (src/OPENMP/bond_fene_omp.cpp:116)
WARNING: FENE bond too long: 349 51816 51815 1.512153 (src/OPENMP/bond_fene_omp.cpp:116)
WARNING: FENE bond too long: 349 51815 51716 1.5092111 (src/OPENMP/bond_fene_omp.cpp:116)
WARNING: FENE bond too long: 350 51816 51815 1.5219309 (src/OPENMP/bond_fene_omp.cpp:116)
WARNING: FENE bond too long: 350 51815 51716 1.5289457 (src/OPENMP/bond_fene_omp.cpp:116)
WARNING: FENE bond too long: 351 51816 51815 1.539241 (src/OPENMP/bond_fene_omp.cpp:116)
WARNING: FENE bond too long: 351 51815 51716 1.5571288 (src/OPENMP/bond_fene_omp.cpp:116)
WARNING: FENE bond too long: 352 51816 51815 1.5615101 (src/OPENMP/bond_fene_omp.cpp:116)
WARNING: FENE bond too long: 352 51815 51716 1.5903824 (src/OPENMP/bond_fene_omp.cpp:116)
WARNING: FENE bond too long: 353 51816 51815 1.5855414 (src/OPENMP/bond_fene_omp.cpp:116)
WARNING: FENE bond too long: 353 51815 51716 1.6244485 (src/OPENMP/bond_fene_omp.cpp:116)
WARNING: FENE bond too long: 354 51816 51815 1.6079916 (src/OPENMP/bond_fene_omp.cpp:116)
WARNING: FENE bond too long: 354 51815 51716 1.6547532 (src/OPENMP/bond_fene_omp.cpp:116)
WARNING: FENE bond too long: 355 51816 51815 1.6258195 (src/OPENMP/bond_fene_omp.cpp:116)
WARNING: FENE bond too long: 355 51815 51716 1.6771307 (src/OPENMP/bond_fene_omp.cpp:116)
WARNING: FENE bond too long: 356 51816 51815 1.6366733 (src/OPENMP/bond_fene_omp.cpp:116)
WARNING: FENE bond too long: 356 51815 51716 1.6884335 (src/OPENMP/bond_fene_omp.cpp:116)
WARNING: FENE bond too long: 357 51816 51815 1.6393357 (src/OPENMP/bond_fene_omp.cpp:116)
WARNING: FENE bond too long: 686 244812 244965 1.6274175 (src/OPENMP/bond_fene_omp.cpp:116)
WARNING: FENE bond too long: 687 244812 244965 1.654423 (src/OPENMP/bond_fene_omp.cpp:116)
WARNING: FENE bond too long: 688 244812 244965 1.6946763 (src/OPENMP/bond_fene_omp.cpp:116)
WARNING: FENE bond too long: 689 244812 244965 1.7397646 (src/OPENMP/bond_fene_omp.cpp:116)
WARNING: FENE bond too long: 690 244812 244965 1.7801679 (src/OPENMP/bond_fene_omp.cpp:116)
WARNING: FENE bond too long: 691 244812 244965 1.8077723 (src/OPENMP/bond_fene_omp.cpp:116)
WARNING: FENE bond too long: 692 244812 244965 1.8178024 (src/OPENMP/bond_fene_omp.cpp:116)
WARNING: FENE bond too long: 693 244812 244965 1.8095488 (src/OPENMP/bond_fene_omp.cpp:116)
WARNING: FENE bond too long: 694 244812 244965 1.7859581 (src/OPENMP/bond_fene_omp.cpp:116)
WARNING: FENE bond too long: 695 244812 244965 1.7527293 (src/OPENMP/bond_fene_omp.cpp:116)
WARNING: FENE bond too long: 696 244812 244965 1.7177385 (src/OPENMP/bond_fene_omp.cpp:116)
WARNING: FENE bond too long: 697 244812 244965 1.6890609 (src/OPENMP/bond_fene_omp.cpp:116)
WARNING: FENE bond too long: 698 244812 244965 1.6733552 (src/OPENMP/bond_fene_omp.cpp:116)
WARNING: FENE bond too long: 699 244812 244965 1.674256 (src/OPENMP/bond_fene_omp.cpp:116)
WARNING: FENE bond too long: 700 244812 244965 1.6915493 (src/OPENMP/bond_fene_omp.cpp:116)
WARNING: FENE bond too long: 701 244812 244965 1.721412 (src/OPENMP/bond_fene_omp.cpp:116)
WARNING: FENE bond too long: 702 244812 244965 1.7573932 (src/OPENMP/bond_fene_omp.cpp:116)
WARNING: FENE bond too long: 703 244812 244965 1.7919996 (src/OPENMP/bond_fene_omp.cpp:116)
WARNING: FENE bond too long: 704 244965 244964 1.7642275 (src/OPENMP/bond_fene_omp.cpp:116)
WARNING: FENE bond too long: 704 244812 244965 1.8183461 (src/OPENMP/bond_fene_omp.cpp:116)
WARNING: FENE bond too long: 705 244965 244964 1.7692048 (src/OPENMP/bond_fene_omp.cpp:116)
WARNING: FENE bond too long: 705 244812 244965 1.8316504 (src/OPENMP/bond_fene_omp.cpp:116)
WARNING: FENE bond too long: 706 244965 244964 1.7623453 (src/OPENMP/bond_fene_omp.cpp:116)
WARNING: FENE bond too long: 706 244812 244965 1.8294938 (src/OPENMP/bond_fene_omp.cpp:116)
WARNING: FENE bond too long: 707 244965 244964 1.7454094 (src/OPENMP/bond_fene_omp.cpp:116)
WARNING: FENE bond too long: 707 244812 244965 1.8119414 (src/OPENMP/bond_fene_omp.cpp:116)
WARNING: FENE bond too long: 708 244965 244964 1.7222722 (src/OPENMP/bond_fene_omp.cpp:116)
WARNING: FENE bond too long: 708 244812 244965 1.7815206 (src/OPENMP/bond_fene_omp.cpp:116)
WARNING: FENE bond too long: 709 244965 244964 1.698352 (src/OPENMP/bond_fene_omp.cpp:116)
WARNING: FENE bond too long: 709 244812 244965 1.7430612 (src/OPENMP/bond_fene_omp.cpp:116)
WARNING: FENE bond too long: 710 244965 244964 1.6797956 (src/OPENMP/bond_fene_omp.cpp:116)
WARNING: FENE bond too long: 710 244812 244965 1.7033144 (src/OPENMP/bond_fene_omp.cpp:116)
WARNING: FENE bond too long: 711 244965 244964 1.6718983 (src/OPENMP/bond_fene_omp.cpp:116)
WARNING: FENE bond too long: 711 244812 244965 1.670161 (src/OPENMP/bond_fene_omp.cpp:116)
WARNING: FENE bond too long: 712 244965 244964 1.6775274 (src/OPENMP/bond_fene_omp.cpp:116)
WARNING: FENE bond too long: 712 244812 244965 1.6504487 (src/OPENMP/bond_fene_omp.cpp:116)
WARNING: FENE bond too long: 713 244965 244964 1.6964253 (src/OPENMP/bond_fene_omp.cpp:116)
WARNING: FENE bond too long: 713 244812 244965 1.648171 (src/OPENMP/bond_fene_omp.cpp:116)
WARNING: FENE bond too long: 714 244965 244964 1.7252648 (src/OPENMP/bond_fene_omp.cpp:116)
WARNING: FENE bond too long: 714 244812 244965 1.6634209 (src/OPENMP/bond_fene_omp.cpp:116)
WARNING: FENE bond too long: 715 244965 244964 1.7583109 (src/OPENMP/bond_fene_omp.cpp:116)
WARNING: FENE bond too long: 715 244812 244965 1.6923955 (src/OPENMP/bond_fene_omp.cpp:116)
WARNING: FENE bond too long: 716 244965 244964 1.7889099 (src/OPENMP/bond_fene_omp.cpp:116)
WARNING: FENE bond too long: 716 244812 244965 1.7282924 (src/OPENMP/bond_fene_omp.cpp:116)
WARNING: FENE bond too long: 717 244965 244964 1.8108924 (src/OPENMP/bond_fene_omp.cpp:116)
WARNING: FENE bond too long: 717 244812 244965 1.763066 (src/OPENMP/bond_fene_omp.cpp:116)
WARNING: FENE bond too long: 718 244965 244964 1.8195637 (src/OPENMP/bond_fene_omp.cpp:116)
WARNING: FENE bond too long: 718 244812 244965 1.7893568 (src/OPENMP/bond_fene_omp.cpp:116)
WARNING: FENE bond too long: 719 244965 244964 1.8127443 (src/OPENMP/bond_fene_omp.cpp:116)
WARNING: FENE bond too long: 719 244812 244965 1.8019695 (src/OPENMP/bond_fene_omp.cpp:116)
WARNING: FENE bond too long: 720 244965 244964 1.7912978 (src/OPENMP/bond_fene_omp.cpp:116)
WARNING: FENE bond too long: 720 244812 244965 1.7986953 (src/OPENMP/bond_fene_omp.cpp:116)
WARNING: FENE bond too long: 721 244965 244964 1.7589823 (src/OPENMP/bond_fene_omp.cpp:116)
WARNING: FENE bond too long: 721 244812 244965 1.7803219 (src/OPENMP/bond_fene_omp.cpp:116)
WARNING: FENE bond too long: 722 244965 244964 1.7217878 (src/OPENMP/bond_fene_omp.cpp:116)
WARNING: FENE bond too long: 722 244812 244965 1.7504833 (src/OPENMP/bond_fene_omp.cpp:116)
WARNING: FENE bond too long: 723 244965 244964 1.6875063 (src/OPENMP/bond_fene_omp.cpp:116)
WARNING: FENE bond too long: 723 244812 244965 1.7152672 (src/OPENMP/bond_fene_omp.cpp:116)
WARNING: FENE bond too long: 724 244965 244964 1.6637453 (src/OPENMP/bond_fene_omp.cpp:116)
WARNING: FENE bond too long: 724 244812 244965 1.6821405 (src/OPENMP/bond_fene_omp.cpp:116)
WARNING: FENE bond too long: 725 244965 244964 1.656077 (src/OPENMP/bond_fene_omp.cpp:116)
WARNING: FENE bond too long: 725 244812 244965 1.6582729 (src/OPENMP/bond_fene_omp.cpp:116)
WARNING: FENE bond too long: 726 244965 244964 1.6664342 (src/OPENMP/bond_fene_omp.cpp:116)
WARNING: FENE bond too long: 726 244812 244965 1.6488955 (src/OPENMP/bond_fene_omp.cpp:116)
WARNING: FENE bond too long: 727 244965 244964 1.692389 (src/OPENMP/bond_fene_omp.cpp:116)
WARNING: FENE bond too long: 727 244812 244965 1.6557993 (src/OPENMP/bond_fene_omp.cpp:116)
WARNING: FENE bond too long: 728 244965 244964 1.7278778 (src/OPENMP/bond_fene_omp.cpp:116)
WARNING: FENE bond too long: 728 244812 244965 1.6775316 (src/OPENMP/bond_fene_omp.cpp:116)
WARNING: FENE bond too long: 729 244965 244964 1.7645503 (src/OPENMP/bond_fene_omp.cpp:116)
WARNING: FENE bond too long: 729 244812 244965 1.7093202 (src/OPENMP/bond_fene_omp.cpp:116)
WARNING: FENE bond too long: 730 244965 244964 1.794234 (src/OPENMP/bond_fene_omp.cpp:116)
WARNING: FENE bond too long: 730 244812 244965 1.7442445 (src/OPENMP/bond_fene_omp.cpp:116)
WARNING: FENE bond too long: 731 244965 244964 1.8104889 (src/OPENMP/bond_fene_omp.cpp:116)
WARNING: FENE bond too long: 731 244812 244965 1.775134 (src/OPENMP/bond_fene_omp.cpp:116)
WARNING: FENE bond too long: 732 244965 244964 1.8097298 (src/OPENMP/bond_fene_omp.cpp:116)
WARNING: FENE bond too long: 732 244812 244965 1.7959889 (src/OPENMP/bond_fene_omp.cpp:116)
WARNING: FENE bond too long: 733 244965 244964 1.7918601 (src/OPENMP/bond_fene_omp.cpp:116)
WARNING: FENE bond too long: 733 244812 244965 1.8028903 (src/OPENMP/bond_fene_omp.cpp:116)
WARNING: FENE bond too long: 734 244965 244964 1.7601482 (src/OPENMP/bond_fene_omp.cpp:116)
WARNING: FENE bond too long: 734 244812 244965 1.7950233 (src/OPENMP/bond_fene_omp.cpp:116)
WARNING: FENE bond too long: 735 244965 244964 1.7208999 (src/OPENMP/bond_fene_omp.cpp:116)
WARNING: FENE bond too long: 735 244812 244965 1.7748265 (src/OPENMP/bond_fene_omp.cpp:116)
WARNING: FENE bond too long: 736 244965 244964 1.6826523 (src/OPENMP/bond_fene_omp.cpp:116)
WARNING: FENE bond too long: 736 244812 244965 1.74745 (src/OPENMP/bond_fene_omp.cpp:116)
WARNING: FENE bond too long: 737 244965 244964 1.6538218 (src/OPENMP/bond_fene_omp.cpp:116)
WARNING: FENE bond too long: 737 244812 244965 1.7193049 (src/OPENMP/bond_fene_omp.cpp:116)
WARNING: FENE bond too long: 738 244965 244964 1.6409277 (src/OPENMP/bond_fene_omp.cpp:116)
WARNING: FENE bond too long: 738 244812 244965 1.6965383 (src/OPENMP/bond_fene_omp.cpp:116)
WARNING: FENE bond too long: 739 244965 244964 1.6468707 (src/OPENMP/bond_fene_omp.cpp:116)
WARNING: FENE bond too long: 739 244812 244965 1.6838968 (src/OPENMP/bond_fene_omp.cpp:116)
WARNING: FENE bond too long: 740 244965 244964 1.6702202 (src/OPENMP/bond_fene_omp.cpp:116)
WARNING: FENE bond too long: 740 244812 244965 1.684035 (src/OPENMP/bond_fene_omp.cpp:116)
WARNING: FENE bond too long: 741 244965 244964 1.7056397 (src/OPENMP/bond_fene_omp.cpp:116)
WARNING: FENE bond too long: 741 244812 244965 1.6963883 (src/OPENMP/bond_fene_omp.cpp:116)
WARNING: FENE bond too long: 742 244965 244964 1.745089 (src/OPENMP/bond_fene_omp.cpp:116)
WARNING: FENE bond too long: 742 244812 244965 1.7172678 (src/OPENMP/bond_fene_omp.cpp:116)
WARNING: FENE bond too long: 743 244965 244964 1.7798385 (src/OPENMP/bond_fene_omp.cpp:116)
WARNING: FENE bond too long: 743 244812 244965 1.7410958 (src/OPENMP/bond_fene_omp.cpp:116)
WARNING: FENE bond too long: 744 244965 244964 1.8025526 (src/OPENMP/bond_fene_omp.cpp:116)
WARNING: FENE bond too long: 744 244812 244965 1.7618798 (src/OPENMP/bond_fene_omp.cpp:116)
WARNING: FENE bond too long: 745 244965 244964 1.808522 (src/OPENMP/bond_fene_omp.cpp:116)
WARNING: FENE bond too long: 745 244812 244965 1.7742547 (src/OPENMP/bond_fene_omp.cpp:116)
WARNING: FENE bond too long: 746 244965 244964 1.7966227 (src/OPENMP/bond_fene_omp.cpp:116)
WARNING: FENE bond too long: 746 244812 244965 1.77455 (src/OPENMP/bond_fene_omp.cpp:116)
WARNING: FENE bond too long: 747 244965 244964 1.7698589 (src/OPENMP/bond_fene_omp.cpp:116)
WARNING: FENE bond too long: 747 244812 244965 1.7621079 (src/OPENMP/bond_fene_omp.cpp:116)
WARNING: FENE bond too long: 748 244965 244964 1.7346989 (src/OPENMP/bond_fene_omp.cpp:116)
WARNING: FENE bond too long: 748 244812 244965 1.7396972 (src/OPENMP/bond_fene_omp.cpp:116)
WARNING: FENE bond too long: 749 244965 244964 1.6998044 (src/OPENMP/bond_fene_omp.cpp:116)
WARNING: FENE bond too long: 749 244812 244965 1.7130723 (src/OPENMP/bond_fene_omp.cpp:116)
WARNING: FENE bond too long: 750 244965 244964 1.6741639 (src/OPENMP/bond_fene_omp.cpp:116)
WARNING: FENE bond too long: 750 244812 244965 1.6895914 (src/OPENMP/bond_fene_omp.cpp:116)
WARNING: FENE bond too long: 751 244965 244964 1.664547 (src/OPENMP/bond_fene_omp.cpp:116)
WARNING: FENE bond too long: 751 244812 244965 1.6756221 (src/OPENMP/bond_fene_omp.cpp:116)
WARNING: FENE bond too long: 752 244965 244964 1.6736884 (src/OPENMP/bond_fene_omp.cpp:116)
WARNING: FENE bond too long: 752 244812 244965 1.6746686 (src/OPENMP/bond_fene_omp.cpp:116)
WARNING: FENE bond too long: 753 244965 244964 1.6997422 (src/OPENMP/bond_fene_omp.cpp:116)
WARNING: FENE bond too long: 753 244812 244965 1.6867615 (src/OPENMP/bond_fene_omp.cpp:116)
WARNING: FENE bond too long: 754 244965 244964 1.7367692 (src/OPENMP/bond_fene_omp.cpp:116)
WARNING: FENE bond too long: 754 244812 244965 1.7086881 (src/OPENMP/bond_fene_omp.cpp:116)
WARNING: FENE bond too long: 755 244965 244964 1.7761227 (src/OPENMP/bond_fene_omp.cpp:116)
WARNING: FENE bond too long: 755 244812 244965 1.7347185 (src/OPENMP/bond_fene_omp.cpp:116)
WARNING: FENE bond too long: 756 244965 244964 1.8091235 (src/OPENMP/bond_fene_omp.cpp:116)
WARNING: FENE bond too long: 756 244812 244965 1.7584656 (src/OPENMP/bond_fene_omp.cpp:116)
WARNING: FENE bond too long: 757 244965 244964 1.829031 (src/OPENMP/bond_fene_omp.cpp:116)
WARNING: FENE bond too long: 757 244812 244965 1.7744562 (src/OPENMP/bond_fene_omp.cpp:116)
WARNING: FENE bond too long: 758 244965 244964 1.8318528 (src/OPENMP/bond_fene_omp.cpp:116)
WARNING: FENE bond too long: 758 244812 244965 1.7790975 (src/OPENMP/bond_fene_omp.cpp:116)
WARNING: FENE bond too long: 759 244965 244964 1.8170789 (src/OPENMP/bond_fene_omp.cpp:116)
WARNING: FENE bond too long: 759 244812 244965 1.7714542 (src/OPENMP/bond_fene_omp.cpp:116)
WARNING: FENE bond too long: 760 244965 244964 1.7879392 (src/OPENMP/bond_fene_omp.cpp:116)
WARNING: FENE bond too long: 760 244812 244965 1.7536171 (src/OPENMP/bond_fene_omp.cpp:116)
WARNING: FENE bond too long: 761 244965 244964 1.7509404 (src/OPENMP/bond_fene_omp.cpp:116)
WARNING: FENE bond too long: 761 244812 244965 1.7303433 (src/OPENMP/bond_fene_omp.cpp:116)
WARNING: FENE bond too long: 762 244965 244964 1.7142836 (src/OPENMP/bond_fene_omp.cpp:116)
WARNING: FENE bond too long: 762 244812 244965 1.7076891 (src/OPENMP/bond_fene_omp.cpp:116)
WARNING: FENE bond too long: 763 244965 244964 1.6861908 (src/OPENMP/bond_fene_omp.cpp:116)
WARNING: FENE bond too long: 763 244812 244965 1.6916731 (src/OPENMP/bond_fene_omp.cpp:116)
WARNING: FENE bond too long: 764 244965 244964 1.6727273 (src/OPENMP/bond_fene_omp.cpp:116)
WARNING: FENE bond too long: 764 244812 244965 1.6866731 (src/OPENMP/bond_fene_omp.cpp:116)
WARNING: FENE bond too long: 765 244965 244964 1.6763836 (src/OPENMP/bond_fene_omp.cpp:116)
WARNING: FENE bond too long: 765 244812 244965 1.6940708 (src/OPENMP/bond_fene_omp.cpp:116)
WARNING: FENE bond too long: 766 244965 244964 1.6961381 (src/OPENMP/bond_fene_omp.cpp:116)
WARNING: FENE bond too long: 766 244812 244965 1.7119799 (src/OPENMP/bond_fene_omp.cpp:116)
WARNING: FENE bond too long: 767 244965 244964 1.7269507 (src/OPENMP/bond_fene_omp.cpp:116)
WARNING: FENE bond too long: 767 244812 244965 1.7360809 (src/OPENMP/bond_fene_omp.cpp:116)
WARNING: FENE bond too long: 768 244965 244964 1.7614477 (src/OPENMP/bond_fene_omp.cpp:116)
WARNING: FENE bond too long: 768 244812 244965 1.761109 (src/OPENMP/bond_fene_omp.cpp:116)
WARNING: FENE bond too long: 769 244965 244964 1.7916394 (src/OPENMP/bond_fene_omp.cpp:116)
WARNING: FENE bond too long: 769 244812 244965 1.7819256 (src/OPENMP/bond_fene_omp.cpp:116)
WARNING: FENE bond too long: 770 244965 244964 1.810751 (src/OPENMP/bond_fene_omp.cpp:116)
WARNING: FENE bond too long: 770 244812 244965 1.7941963 (src/OPENMP/bond_fene_omp.cpp:116)
WARNING: FENE bond too long: 771 244965 244964 1.8143839 (src/OPENMP/bond_fene_omp.cpp:116)
WARNING: FENE bond too long: 771 244812 244965 1.7956151 (src/OPENMP/bond_fene_omp.cpp:116)
WARNING: FENE bond too long: 772 244965 244964 1.8011494 (src/OPENMP/bond_fene_omp.cpp:116)
WARNING: FENE bond too long: 772 244812 244965 1.786144 (src/OPENMP/bond_fene_omp.cpp:116)
WARNING: FENE bond too long: 773 244965 244964 1.7733655 (src/OPENMP/bond_fene_omp.cpp:116)
WARNING: FENE bond too long: 773 244812 244965 1.7682522 (src/OPENMP/bond_fene_omp.cpp:116)
WARNING: FENE bond too long: 774 244965 244964 1.7365702 (src/OPENMP/bond_fene_omp.cpp:116)
WARNING: FENE bond too long: 774 244812 244965 1.7463077 (src/OPENMP/bond_fene_omp.cpp:116)
WARNING: FENE bond too long: 775 244965 244964 1.6985659 (src/OPENMP/bond_fene_omp.cpp:116)
WARNING: FENE bond too long: 775 244812 244965 1.7258977 (src/OPENMP/bond_fene_omp.cpp:116)
WARNING: FENE bond too long: 776 244965 244964 1.6680828 (src/OPENMP/bond_fene_omp.cpp:116)
WARNING: FENE bond too long: 776 244812 244965 1.7128465 (src/OPENMP/bond_fene_omp.cpp:116)
WARNING: FENE bond too long: 777 244965 244964 1.6522165 (src/OPENMP/bond_fene_omp.cpp:116)
WARNING: FENE bond too long: 777 244812 244965 1.7112044 (src/OPENMP/bond_fene_omp.cpp:116)
WARNING: FENE bond too long: 778 244965 244964 1.6543462 (src/OPENMP/bond_fene_omp.cpp:116)
WARNING: FENE bond too long: 778 244812 244965 1.7216688 (src/OPENMP/bond_fene_omp.cpp:116)
WARNING: FENE bond too long: 779 244965 244964 1.6734143 (src/OPENMP/bond_fene_omp.cpp:116)
WARNING: FENE bond too long: 779 244812 244965 1.7414014 (src/OPENMP/bond_fene_omp.cpp:116)
WARNING: FENE bond too long: 780 244965 244964 1.7043659 (src/OPENMP/bond_fene_omp.cpp:116)
WARNING: FENE bond too long: 780 244812 244965 1.7649735 (src/OPENMP/bond_fene_omp.cpp:116)
WARNING: FENE bond too long: 781 244965 244964 1.7400807 (src/OPENMP/bond_fene_omp.cpp:116)
WARNING: FENE bond too long: 781 244812 244965 1.7863104 (src/OPENMP/bond_fene_omp.cpp:116)
WARNING: FENE bond too long: 782 244965 244964 1.7727672 (src/OPENMP/bond_fene_omp.cpp:116)
WARNING: FENE bond too long: 782 244812 244965 1.8001221 (src/OPENMP/bond_fene_omp.cpp:116)
WARNING: FENE bond too long: 783 244965 244964 1.7958656 (src/OPENMP/bond_fene_omp.cpp:116)
WARNING: FENE bond too long: 783 244812 244965 1.8032415 (src/OPENMP/bond_fene_omp.cpp:116)
WARNING: FENE bond too long: 784 244965 244964 1.8050839 (src/OPENMP/bond_fene_omp.cpp:116)
WARNING: FENE bond too long: 784 244812 244965 1.7949825 (src/OPENMP/bond_fene_omp.cpp:116)
WARNING: FENE bond too long: 785 244965 244964 1.7992693 (src/OPENMP/bond_fene_omp.cpp:116)
WARNING: FENE bond too long: 785 244812 244965 1.7769247 (src/OPENMP/bond_fene_omp.cpp:116)
WARNING: FENE bond too long: 786 244965 244964 1.7806576 (src/OPENMP/bond_fene_omp.cpp:116)
WARNING: FENE bond too long: 787 244965 244964 1.7545679 (src/OPENMP/bond_fene_omp.cpp:116)
WARNING: FENE bond too long: 788 244965 244964 1.7283187 (src/OPENMP/bond_fene_omp.cpp:116)
WARNING: FENE bond too long: 789 244965 244964 1.7090155 (src/OPENMP/bond_fene_omp.cpp:116)
WARNING: FENE bond too long: 790 244965 244964 1.701696 (src/OPENMP/bond_fene_omp.cpp:116)
WARNING: FENE bond too long: 791 244965 244964 1.7078703 (src/OPENMP/bond_fene_omp.cpp:116)
WARNING: FENE bond too long: 792 244965 244964 1.7254535 (src/OPENMP/bond_fene_omp.cpp:116)
WARNING: FENE bond too long: 793 244965 244964 1.749758 (src/OPENMP/bond_fene_omp.cpp:116)
WARNING: FENE bond too long: 794 244965 244964 1.7751477 (src/OPENMP/bond_fene_omp.cpp:116)
WARNING: FENE bond too long: 795 244965 244964 1.7962034 (src/OPENMP/bond_fene_omp.cpp:116)
WARNING: FENE bond too long: 796 244965 244964 1.8088055 (src/OPENMP/bond_fene_omp.cpp:116)
WARNING: FENE bond too long: 797 244965 244964 1.8109121 (src/OPENMP/bond_fene_omp.cpp:116)
WARNING: FENE bond too long: 798 244965 244964 1.8026302 (src/OPENMP/bond_fene_omp.cpp:116)
WARNING: FENE bond too long: 799 244965 244964 1.7862923 (src/OPENMP/bond_fene_omp.cpp:116)
WARNING: FENE bond too long: 800 244965 244964 1.7662176 (src/OPENMP/bond_fene_omp.cpp:116)
WARNING: FENE bond too long: 801 244965 244964 1.7477257 (src/OPENMP/bond_fene_omp.cpp:116)
WARNING: FENE bond too long: 802 244965 244964 1.7358596 (src/OPENMP/bond_fene_omp.cpp:116)
WARNING: FENE bond too long: 803 244965 244964 1.7336086 (src/OPENMP/bond_fene_omp.cpp:116)
WARNING: FENE bond too long: 869 395742 395691 1.7053557 (src/OPENMP/bond_fene_omp.cpp:116)
WARNING: FENE bond too long: 870 395742 395691 1.7017015 (src/OPENMP/bond_fene_omp.cpp:116)
WARNING: FENE bond too long: 871 395742 395691 1.7099367 (src/OPENMP/bond_fene_omp.cpp:116)
WARNING: FENE bond too long: 872 395742 395691 1.7277845 (src/OPENMP/bond_fene_omp.cpp:116)
WARNING: FENE bond too long: 873 395742 395691 1.7508002 (src/OPENMP/bond_fene_omp.cpp:116)
WARNING: FENE bond too long: 874 395742 395691 1.773809 (src/OPENMP/bond_fene_omp.cpp:116)
WARNING: FENE bond too long: 875 395742 395691 1.7926944 (src/OPENMP/bond_fene_omp.cpp:116)
WARNING: FENE bond too long: 876 395742 395691 1.8051391 (src/OPENMP/bond_fene_omp.cpp:116)
WARNING: FENE bond too long: 877 395742 395691 1.8096557 (src/OPENMP/bond_fene_omp.cpp:116)
WARNING: FENE bond too long: 878 395742 395691 1.8054512 (src/OPENMP/bond_fene_omp.cpp:116)
WARNING: FENE bond too long: 879 395742 395691 1.7923611 (src/OPENMP/bond_fene_omp.cpp:116)
WARNING: FENE bond too long: 880 395742 395691 1.7713118 (src/OPENMP/bond_fene_omp.cpp:116)
WARNING: FENE bond too long: 887 395742 395691 1.7448776 (src/OPENMP/bond_fene_omp.cpp:116)
WARNING: FENE bond too long: 888 395742 395691 1.7742678 (src/OPENMP/bond_fene_omp.cpp:116)
WARNING: FENE bond too long: 889 395742 395691 1.7997104 (src/OPENMP/bond_fene_omp.cpp:116)
WARNING: FENE bond too long: 890 395742 395691 1.8164883 (src/OPENMP/bond_fene_omp.cpp:116)
WARNING: FENE bond too long: 891 395742 395691 1.8223653 (src/OPENMP/bond_fene_omp.cpp:116)
WARNING: FENE bond too long: 892 395742 395691 1.8170135 (src/OPENMP/bond_fene_omp.cpp:116)
WARNING: FENE bond too long: 893 395742 395691 1.8012818 (src/OPENMP/bond_fene_omp.cpp:116)
WARNING: FENE bond too long: 894 395742 395691 1.7774674 (src/OPENMP/bond_fene_omp.cpp:116)
WARNING: FENE bond too long: 895 395742 395691 1.7498472 (src/OPENMP/bond_fene_omp.cpp:116)
WARNING: FENE bond too long: 896 395742 395691 1.7239662 (src/OPENMP/bond_fene_omp.cpp:116)
WARNING: FENE bond too long: 897 395742 395691 1.705473 (src/OPENMP/bond_fene_omp.cpp:116)
WARNING: FENE bond too long: 898 395742 395691 1.6992978 (src/OPENMP/bond_fene_omp.cpp:116)
WARNING: FENE bond too long: 899 395742 395691 1.7076045 (src/OPENMP/bond_fene_omp.cpp:116)
WARNING: FENE bond too long: 900 395742 395691 1.7286079 (src/OPENMP/bond_fene_omp.cpp:116)
WARNING: FENE bond too long: 901 395742 395691 1.7572033 (src/OPENMP/bond_fene_omp.cpp:116)
WARNING: FENE bond too long: 902 395742 395691 1.7866456 (src/OPENMP/bond_fene_omp.cpp:116)
WARNING: FENE bond too long: 903 395742 395691 1.8104618 (src/OPENMP/bond_fene_omp.cpp:116)
WARNING: FENE bond too long: 904 395742 395691 1.8244912 (src/OPENMP/bond_fene_omp.cpp:116)
WARNING: FENE bond too long: 905 395742 395691 1.8269658 (src/OPENMP/bond_fene_omp.cpp:116)
WARNING: FENE bond too long: 906 395742 395691 1.8179308 (src/OPENMP/bond_fene_omp.cpp:116)
WARNING: FENE bond too long: 907 395742 395691 1.7990688 (src/OPENMP/bond_fene_omp.cpp:116)
WARNING: FENE bond too long: 908 395742 395691 1.7734828 (src/OPENMP/bond_fene_omp.cpp:116)
WARNING: FENE bond too long: 909 395742 395691 1.7452295 (src/OPENMP/bond_fene_omp.cpp:116)
WARNING: FENE bond too long: 910 395742 395691 1.7197894 (src/OPENMP/bond_fene_omp.cpp:116)
WARNING: FENE bond too long: 911 395742 395691 1.7030156 (src/OPENMP/bond_fene_omp.cpp:116)
WARNING: FENE bond too long: 912 395742 395691 1.6994081 (src/OPENMP/bond_fene_omp.cpp:116)
WARNING: FENE bond too long: 913 395742 395691 1.710008 (src/OPENMP/bond_fene_omp.cpp:116)
WARNING: FENE bond too long: 914 395742 395691 1.7321923 (src/OPENMP/bond_fene_omp.cpp:116)
WARNING: FENE bond too long: 915 395742 395691 1.7603673 (src/OPENMP/bond_fene_omp.cpp:116)
WARNING: FENE bond too long: 916 395742 395691 1.7873076 (src/OPENMP/bond_fene_omp.cpp:116)
WARNING: FENE bond too long: 917 395742 395691 1.8069506 (src/OPENMP/bond_fene_omp.cpp:116)
WARNING: FENE bond too long: 918 395742 395691 1.8160891 (src/OPENMP/bond_fene_omp.cpp:116)
WARNING: FENE bond too long: 919 395742 395691 1.814423 (src/OPENMP/bond_fene_omp.cpp:116)
WARNING: FENE bond too long: 920 395742 395691 1.8037747 (src/OPENMP/bond_fene_omp.cpp:116)
WARNING: FENE bond too long: 921 395742 395691 1.7869566 (src/OPENMP/bond_fene_omp.cpp:116)
WARNING: FENE bond too long: 922 395742 395691 1.7669719 (src/OPENMP/bond_fene_omp.cpp:116)
WARNING: FENE bond too long: 923 395742 395691 1.7471216 (src/OPENMP/bond_fene_omp.cpp:116)
WARNING: FENE bond too long: 924 395742 395691 1.7306386 (src/OPENMP/bond_fene_omp.cpp:116)
WARNING: FENE bond too long: 925 395742 395691 1.7211541 (src/OPENMP/bond_fene_omp.cpp:116)
WARNING: FENE bond too long: 926 395742 395691 1.7212016 (src/OPENMP/bond_fene_omp.cpp:116)
WARNING: FENE bond too long: 927 395742 395691 1.731324 (src/OPENMP/bond_fene_omp.cpp:116)
WARNING: FENE bond too long: 928 395742 395691 1.7495613 (src/OPENMP/bond_fene_omp.cpp:116)
WARNING: FENE bond too long: 929 395742 395691 1.7714738 (src/OPENMP/bond_fene_omp.cpp:116)
WARNING: FENE bond too long: 930 395742 395691 1.7912662 (src/OPENMP/bond_fene_omp.cpp:116)
WARNING: FENE bond too long: 931 395742 395691 1.8042943 (src/OPENMP/bond_fene_omp.cpp:116)
WARNING: FENE bond too long: 932 395742 395691 1.8083107 (src/OPENMP/bond_fene_omp.cpp:116)
WARNING: FENE bond too long: 933 395742 395691 1.8041121 (src/OPENMP/bond_fene_omp.cpp:116)
WARNING: FENE bond too long: 934 395742 395691 1.7938887 (src/OPENMP/bond_fene_omp.cpp:116)
WARNING: FENE bond too long: 935 395742 395691 1.780364 (src/OPENMP/bond_fene_omp.cpp:116)
WARNING: FENE bond too long: 936 395742 395691 1.7659303 (src/OPENMP/bond_fene_omp.cpp:116)
WARNING: FENE bond too long: 937 395742 395691 1.7521315 (src/OPENMP/bond_fene_omp.cpp:116)
WARNING: FENE bond too long: 938 395742 395691 1.7406274 (src/OPENMP/bond_fene_omp.cpp:116)
WARNING: FENE bond too long: 939 395742 395691 1.7335489 (src/OPENMP/bond_fene_omp.cpp:116)
WARNING: FENE bond too long: 940 395742 395691 1.7328053 (src/OPENMP/bond_fene_omp.cpp:116)
WARNING: FENE bond too long: 941 395742 395691 1.7387384 (src/OPENMP/bond_fene_omp.cpp:116)
WARNING: FENE bond too long: 942 395742 395691 1.7499163 (src/OPENMP/bond_fene_omp.cpp:116)
WARNING: FENE bond too long: 943 395742 395691 1.7632202 (src/OPENMP/bond_fene_omp.cpp:116)
WARNING: FENE bond too long: 944 395742 395691 1.7750725 (src/OPENMP/bond_fene_omp.cpp:116)
WARNING: FENE bond too long: 945 395742 395691 1.7830236 (src/OPENMP/bond_fene_omp.cpp:116)
WARNING: FENE bond too long: 946 395742 395691 1.7867527 (src/OPENMP/bond_fene_omp.cpp:116)
WARNING: FENE bond too long: 947 395742 395691 1.7875179 (src/OPENMP/bond_fene_omp.cpp:116)
WARNING: FENE bond too long: 948 395742 395691 1.7867359 (src/OPENMP/bond_fene_omp.cpp:116)
WARNING: FENE bond too long: 949 395742 395691 1.7847585 (src/OPENMP/bond_fene_omp.cpp:116)
WARNING: FENE bond too long: 950 395742 395691 1.7807366 (src/OPENMP/bond_fene_omp.cpp:116)
WARNING: FENE bond too long: 951 395742 395691 1.7737086 (src/OPENMP/bond_fene_omp.cpp:116)
WARNING: FENE bond too long: 952 395742 395691 1.7639793 (src/OPENMP/bond_fene_omp.cpp:116)
WARNING: FENE bond too long: 953 395742 395691 1.7535122 (src/OPENMP/bond_fene_omp.cpp:116)
WARNING: FENE bond too long: 954 395742 395691 1.7453156 (src/OPENMP/bond_fene_omp.cpp:116)
WARNING: FENE bond too long: 955 395742 395691 1.7418326 (src/OPENMP/bond_fene_omp.cpp:116)
WARNING: FENE bond too long: 956 395742 395691 1.7437927 (src/OPENMP/bond_fene_omp.cpp:116)
WARNING: FENE bond too long: 957 395742 395691 1.7500349 (src/OPENMP/bond_fene_omp.cpp:116)
WARNING: FENE bond too long: 958 395742 395691 1.7586699 (src/OPENMP/bond_fene_omp.cpp:116)
WARNING: FENE bond too long: 959 395742 395691 1.7682153 (src/OPENMP/bond_fene_omp.cpp:116)
WARNING: FENE bond too long: 960 395742 395691 1.7780769 (src/OPENMP/bond_fene_omp.cpp:116)
WARNING: FENE bond too long: 961 395742 395691 1.787758 (src/OPENMP/bond_fene_omp.cpp:116)
WARNING: FENE bond too long: 962 395742 395691 1.79614 (src/OPENMP/bond_fene_omp.cpp:116)
WARNING: FENE bond too long: 963 395742 395691 1.801065 (src/OPENMP/bond_fene_omp.cpp:116)
WARNING: FENE bond too long: 964 395742 395691 1.8000024 (src/OPENMP/bond_fene_omp.cpp:116)
WARNING: FENE bond too long: 965 395742 395691 1.7915571 (src/OPENMP/bond_fene_omp.cpp:116)
WARNING: FENE bond too long: 966 395742 395691 1.776723 (src/OPENMP/bond_fene_omp.cpp:116)
WARNING: FENE bond too long: 967 395742 395691 1.7592434 (src/OPENMP/bond_fene_omp.cpp:116)
WARNING: FENE bond too long: 968 395742 395691 1.7439248 (src/OPENMP/bond_fene_omp.cpp:116)
WARNING: FENE bond too long: 969 395742 395691 1.7350661 (src/OPENMP/bond_fene_omp.cpp:116)
WARNING: FENE bond too long: 970 395742 395691 1.7349355 (src/OPENMP/bond_fene_omp.cpp:116)
WARNING: FENE bond too long: 971 395742 395691 1.7433902 (src/OPENMP/bond_fene_omp.cpp:116)
WARNING: FENE bond too long: 972 395742 395691 1.7582234 (src/OPENMP/bond_fene_omp.cpp:116)
WARNING: FENE bond too long: 973 395742 395691 1.7760536 (src/OPENMP/bond_fene_omp.cpp:116)
WARNING: Too many warnings: 16073 vs 100. All future warnings willbe suppressed
      1000   0.99744079     0.85159155     0.34037124     1.1919628      0.2431818      786983.74      77.084232      77.084232      132.44473    
Loop time of 24.594 on 360 procs for 1000 steps with 1205461 atoms

Performance: 17565.250 tau/day, 40.660 timesteps/s, 49.014 Matom-step/s
99.2% CPU use with 360 MPI tasks x 1 OpenMP threads

MPI task timing breakdown:
Section |  min time  |  avg time  |  max time  |%varavg| %total
---------------------------------------------------------------
Pair    | 0.022783   | 0.94827    | 2.7702     |  84.6 |  3.86
Bond    | 0.001079   | 0.018446   | 0.090307   |  16.5 |  0.08
Neigh   | 18.04      | 18.261     | 18.43      |   2.3 | 74.25
Comm    | 1.037      | 2.7871     | 4.6514     |  55.9 | 11.33
Output  | 0.0050725  | 0.018546   | 0.029927   |   6.1 |  0.08
Modify  | 0.90241    | 2.1191     | 4.6349     |  74.1 |  8.62
Other   |            | 0.4418     |            |       |  1.80

Nlocal:         3348.5 ave       12424 max           0 min
Histogram: 88 102 20 12 52 64 12 0 8 2
Nghost:        17054.2 ave       39441 max        6261 min
Histogram: 64 41 64 79 44 42 4 19 1 2
Neighs:        61572.9 ave      230001 max           0 min
Histogram: 134 17 34 80 33 18 20 18 2 4

Total # of neighbors = 22166228
Ave neighs/atom = 18.388175
Ave special neighs/atom = 0.19048314
Neighbor list builds = 196
Dangerous builds = 0
Generated 0 of 15 mixed pair_coeff terms from geometric mixing rule
Hybrid pair style last /omp style soft
Last active /omp style is bond_style fene/omp
Setting up cg style minimization ...
  Unit style    : lj
  Current step  : 1000
Per MPI rank memory allocation (min/avg/max) = 19.45 | 31.9 | 49.03 Mbytes
   Step     c_mobile_temp      PotEng         KinEng         TotEng         Press          Volume           Lx             Ly             Lz      
      1000   0.99744079     0.85159155     0.34037124     1.1919628      0.2431818      786983.74      77.084232      77.084232      132.44473    
      1796   0.99744079     0.43760524     0.34037124     0.77797647    -0.60947216     786983.74      77.084232      77.084232      132.44473    
Loop time of 31.6831 on 360 procs for 796 steps with 1205461 atoms

99.3% CPU use with 360 MPI tasks x 1 OpenMP threads

Minimization stats:
  Stopping criterion = energy tolerance
  Energy initial, next-to-last, final = 
     0.851591554531375  0.437643930247001  0.437605238011937
  Force two-norm initial, final = 21433.937 294.23478
  Force max component initial, final = 523.41612 59.258293
  Final line search alpha, max atom move = 0.0020698625 0.12265652
  Iterations, force evaluations = 796 990

MPI task timing breakdown:
Section |  min time  |  avg time  |  max time  |%varavg| %total
---------------------------------------------------------------
Pair    | 0.0023678  | 0.76349    | 2.0848     |  89.8 |  2.41
Bond    | 0.00078205 | 0.014436   | 0.052159   |  15.8 |  0.05
Neigh   | 25.701     | 26.025     | 26.308     |   3.0 | 82.14
Comm    | 1.2887     | 2.9357     | 4.5323     |  53.0 |  9.27
Output  | 0          | 0          | 0          |   0.0 |  0.00
Modify  | 0.0080801  | 0.072008   | 0.23762    |  20.0 |  0.23
Other   |            | 1.872      |            |       |  5.91

Nlocal:         3348.5 ave       12415 max           0 min
Histogram: 88 102 20 32 32 64 12 0 8 2
Nghost:        16976.1 ave       39107 max        6178 min
Histogram: 64 44 46 94 44 42 4 19 1 2
Neighs:        36353.9 ave      138204 max           0 min
Histogram: 198 2 0 7 31 66 36 11 7 2

Total # of neighbors = 13087405
Ave neighs/atom = 10.856764
Ave special neighs/atom = 0.19048314
Neighbor list builds = 290
Dangerous builds = 7
Soft push complete
========================================
Phase 2: Switching to full LJ interactions
========================================
Generated 0 of 15 mixed pair_coeff terms from geometric mixing rule
Last active /omp style is bond_style fene/omp
Neighbor list info ...
  update: every = 1 steps, delay = 0 steps, check = yes
  max neighbors/atom: 2000, page size: 100000
  master list distance cutoff = 2.8
  ghost atom cutoff = 5
  binsize = 1.4, bins = 56 56 95
  1 neighbor lists, perpetual/occasional/extra = 1 0 0
  (1) pair lj/cut/omp, perpetual
      attributes: half, newton on, omp
      pair build: half/bin/newton/omp
      stencil: half/bin/3d
      bin: standard
Setting up cg style minimization ...
  Unit style    : lj
  Current step  : 1796
Per MPI rank memory allocation (min/avg/max) = 18.82 | 31.26 | 47.8 Mbytes
   Step     c_mobile_temp      PotEng         KinEng         TotEng         Press          Volume           Lx             Ly             Lz      
      1796   0.99744079     0.43758576     0.34037124     0.777957      -0.60949027     786983.74      77.084232      77.084232      132.44473    
      1797   0.99744079     0.43756863     0.34037124     0.77793987    -0.60952052     786983.74      77.084232      77.084232      132.44473    
Loop time of 0.0389234 on 360 procs for 1 steps with 1205461 atoms

99.4% CPU use with 360 MPI tasks x 1 OpenMP threads

Minimization stats:
  Stopping criterion = energy tolerance
  Energy initial, next-to-last, final = 
     0.437585759539909  0.437585759539909  0.437568631757908
  Force two-norm initial, final = 295.82034 191.57958
  Force max component initial, final = 59.258293 23.68884
  Final line search alpha, max atom move = 0.0016875275 0.03997557
  Iterations, force evaluations = 1 2

MPI task timing breakdown:
Section |  min time  |  avg time  |  max time  |%varavg| %total
---------------------------------------------------------------
Pair    | 2.122e-05  | 0.0021083  | 0.0058432  |   5.0 |  5.42
Bond    | 2.425e-06  | 4.3188e-05 | 0.00032882 |   0.0 |  0.11
Neigh   | 0          | 0          | 0          |   0.0 |  0.00
Comm    | 0.0017606  | 0.0066876  | 0.011091   |   3.2 | 17.18
Output  | 0          | 0          | 0          |   0.0 |  0.00
Modify  | 1.5269e-05 | 0.00011495 | 0.00039722 |   0.0 |  0.30
Other   |            | 0.02997    |            |       | 77.00

Nlocal:         3348.5 ave       12415 max           0 min
Histogram: 88 102 20 32 32 64 12 0 8 2
Nghost:        16976.1 ave       39106 max        6178 min
Histogram: 64 44 46 94 44 42 4 19 1 2
Neighs:        30947.8 ave       86974 max           0 min
Histogram: 200 0 0 0 5 11 22 36 38 48

Total # of neighbors = 11141214
Ave neighs/atom = 9.2422849
Ave special neighs/atom = 0.19048314
Neighbor list builds = 0
Dangerous builds = 0
Generated 0 of 15 mixed pair_coeff terms from geometric mixing rule
Last active /omp style is bond_style fene/omp
Setting up Verlet run ...
  Unit style    : lj
  Current step  : 1797
  Time step     : 0.005
Per MPI rank memory allocation (min/avg/max) = 17.69 | 29.19 | 44.42 Mbytes
   Step     c_mobile_temp      PotEng         KinEng         TotEng         Press          Volume           Lx             Ly             Lz      
      1797   0.99744079     0.43756863     0.34037124     0.77793987    -0.36019703     786983.74      77.084232      77.084232      132.44473    
      6797   1.0055343      0.63495785     0.34313311     0.97809095     0.068287746    786983.74      77.084232      77.084232      132.44473    
Loop time of 96.1489 on 360 procs for 5000 steps with 1205461 atoms

Performance: 22465.166 tau/day, 52.003 timesteps/s, 62.687 Matom-step/s
99.3% CPU use with 360 MPI tasks x 1 OpenMP threads

MPI task timing breakdown:
Section |  min time  |  avg time  |  max time  |%varavg| %total
---------------------------------------------------------------
Pair    | 0.0037593  | 1.8254     | 4.4795     | 140.0 |  1.90
Bond    | 0.0030248  | 0.026576   | 0.085283   |  18.3 |  0.03
Neigh   | 72.871     | 73.877     | 74.65      |   5.0 | 76.84
Comm    | 5.3889     | 11.666     | 17.209     |  84.4 | 12.13
Output  | 0.027215   | 0.12146    | 0.21783    |  20.8 |  0.13
Modify  | 3.6269     | 7.1226     | 14.773     | 113.0 |  7.41
Other   |            | 1.51       |            |       |  1.57

Nlocal:         3348.5 ave       12695 max           0 min
Histogram: 92 98 20 42 24 62 12 0 8 2
Nghost:        17079.4 ave       40535 max        6201 min
Histogram: 64 48 68 68 46 41 3 19 1 2
Neighs:        29846.8 ave       68522 max           0 min
Histogram: 138 57 5 0 0 0 3 8 40 109

Total # of neighbors = 10744832
Ave neighs/atom = 8.913463
Ave special neighs/atom = 0.19048314
Neighbor list builds = 768
Dangerous builds = 0
========================================
Phase 3: Production €” piston forcing
========================================
  1 rigid bodies with 63221 atoms
Generated 0 of 15 mixed pair_coeff terms from geometric mixing rule
Last active /omp style is bond_style fene/omp
Setting up Verlet run ...
  Unit style    : lj
  Current step  : 6797
  Time step     : 0.005
Per MPI rank memory allocation (min/avg/max) = 17.15 | 28.14 | 42.67 Mbytes
   Step     c_mobile_temp      PotEng         KinEng         TotEng         Press          Volume           Lx             Ly             Lz      
      6797   1.0055343      0.63495785     0.34313311     0.97809095     0.061446046    786983.74      77.084232      77.084232      132.44473    
Loop time of 1.34345e-05 on 360 procs for 0 steps with 1205461 atoms

109.3% CPU use with 360 MPI tasks x 1 OpenMP threads

MPI task timing breakdown:
Section |  min time  |  avg time  |  max time  |%varavg| %total
---------------------------------------------------------------
Pair    | 0          | 0          | 0          |   0.0 |  0.00
Bond    | 0          | 0          | 0          |   0.0 |  0.00
Neigh   | 0          | 0          | 0          |   0.0 |  0.00
Comm    | 0          | 0          | 0          |   0.0 |  0.00
Output  | 0          | 0          | 0          |   0.0 |  0.00
Modify  | 0          | 0          | 0          |   0.0 |  0.00
Other   |            | 1.343e-05  |            |       |100.00

Nlocal:         3348.5 ave       12698 max           0 min
Histogram: 92 98 20 42 24 62 12 0 8 2
Nghost:        17079.7 ave       40532 max        6202 min
Histogram: 64 48 68 68 46 41 3 19 1 2
Neighs:        29846.8 ave       68537 max           0 min
Histogram: 139 57 4 0 0 0 3 8 41 108

Total # of neighbors = 10744862
Ave neighs/atom = 8.9134879
Ave special neighs/atom = 0.19048314
Neighbor list builds = 0
Dangerous builds = 0
Rg_xx = 192.50190956409
Rg_yy = 193.187571412987
Rg_zz = 769.384990427474
hw_x = 24.9741103342573
hw_y = 25.0185477471831
hw_z = 49.9280218813546
ERROR on proc 0: Substitution for illegal variable gel_lz
For more information see https://docs.lammps.org/err0013 (src/input.cpp:665)
ERROR on proc 17: Substitution for illegal variable gel_lz
For more information see https://docs.lammps.org/err0013 (src/input.cpp:665)
ERROR on proc 68: Substitution for illegal variable gel_lz
For more information see https://docs.lammps.org/err0013 (src/input.cpp:665)
ERROR on proc 49: Substitution for illegal variable gel_lz
For more information see https://docs.lammps.org/err0013 (src/input.cpp:665)
ERROR on proc 34: Substitution for illegal variable gel_lz
For more information see https://docs.lammps.org/err0013 (src/input.cpp:665)
ERROR on proc 21: Substitution for illegal variable gel_lz
For more information see https://docs.lammps.org/err0013 (src/input.cpp:665)
ERROR on proc 23: Substitution for illegal variable gel_lz
For more information see https://docs.lammps.org/err0013 (src/input.cpp:665)
ERROR on proc 66: Substitution for illegal variable gel_lz
For more information see https://docs.lammps.org/err0013 (src/input.cpp:665)
ERROR on proc 72: Substitution for illegal variable gel_lz
For more information see https://docs.lammps.org/err0013 (src/input.cpp:665)
ERROR on proc 81: Substitution for illegal variable gel_lz
For more information see https://docs.lammps.org/err0013 (src/input.cpp:665)
ERROR on proc 107: Substitution for illegal variable gel_lz
For more information see https://docs.lammps.org/err0013 (src/input.cpp:665)
ERROR on proc 7: Substitution for illegal variable gel_lz
For more information see https://docs.lammps.org/err0013 (src/input.cpp:665)
ERROR on proc 71: Substitution for illegal variable gel_lz
For more information see https://docs.lammps.org/err0013 (src/input.cpp:665)
ERROR on proc 73: Substitution for illegal variable gel_lz
For more information see https://docs.lammps.org/err0013 (src/input.cpp:665)
ERROR on proc 83: Substitution for illegal variable gel_lz
For more information see https://docs.lammps.org/err0013 (src/input.cpp:665)
ERROR on proc 106: Substitution for illegal variable gel_lz
For more information see https://docs.lammps.org/err0013 (src/input.cpp:665)
ERROR on proc 65: Substitution for illegal variable gel_lz
For more information see https://docs.lammps.org/err0013 (src/input.cpp:665)
ERROR on proc 108: Substitution for illegal variable gel_lz
For more information see https://docs.lammps.org/err0013 (src/input.cpp:665)
ERROR on proc 118: Substitution for illegal variable gel_lz
For more information see https://docs.lammps.org/err0013 (src/input.cpp:665)
ERROR on proc 82: Substitution for illegal variable gel_lz
For more information see https://docs.lammps.org/err0013 (src/input.cpp:665)
ERROR on proc 36: Substitution for illegal variable gel_lz
For more information see https://docs.lammps.org/err0013 (src/input.cpp:665)
ERROR on proc 19: Substitution for illegal variable gel_lz
For more information see https://docs.lammps.org/err0013 (src/input.cpp:665)
ERROR on proc 24: Substitution for illegal variable gel_lz
For more information see https://docs.lammps.org/err0013 (src/input.cpp:665)
ERROR on proc 47: Substitution for illegal variable gel_lz
For more information see https://docs.lammps.org/err0013 (src/input.cpp:665)
ERROR on proc 8: Substitution for illegal variable gel_lz
For more information see https://docs.lammps.org/err0013 (src/input.cpp:665)
ERROR on proc 51: Substitution for illegal variable gel_lz
For more information see https://docs.lammps.org/err0013 (src/input.cpp:665)
ERROR on proc 31: Substitution for illegal variable gel_lz
For more information see https://docs.lammps.org/err0013 (src/input.cpp:665)
ERROR on proc 15: Substitution for illegal variable gel_lz
For more information see https://docs.lammps.org/err0013 (src/input.cpp:665)
ERROR on proc 57: Substitution for illegal variable gel_lz
For more information see https://docs.lammps.org/err0013 (src/input.cpp:665)
ERROR on proc 3: Substitution for illegal variable gel_lz
For more information see https://docs.lammps.org/err0013 (src/input.cpp:665)
ERROR on proc 2: Substitution for illegal variable gel_lz
For more information see https://docs.lammps.org/err0013 (src/input.cpp:665)
ERROR on proc 1: Substitution for illegal variable gel_lz
For more information see https://docs.lammps.org/err0013 (src/input.cpp:665)
ERROR on proc 6: Substitution for illegal variable gel_lz
For more information see https://docs.lammps.org/err0013 (src/input.cpp:665)
ERROR on proc 40: Substitution for illegal variable gel_lz
For more information see https://docs.lammps.org/err0013 (src/input.cpp:665)
ERROR on proc 43: Substitution for illegal variable gel_lz
For more information see https://docs.lammps.org/err0013 (src/input.cpp:665)
ERROR on proc 32: Substitution for illegal variable gel_lz
For more information see https://docs.lammps.org/err0013 (src/input.cpp:665)
ERROR on proc 22: Substitution for illegal variable gel_lz
For more information see https://docs.lammps.org/err0013 (src/input.cpp:665)
ERROR on proc 50: Substitution for illegal variable gel_lz
For more information see https://docs.lammps.org/err0013 (src/input.cpp:665)
ERROR on proc 20: Substitution for illegal variable gel_lz
For more information see https://docs.lammps.org/err0013 (src/input.cpp:665)
ERROR on proc 11: Substitution for illegal variable gel_lz
For more information see https://docs.lammps.org/err0013 (src/input.cpp:665)
ERROR on proc 27: Substitution for illegal variable gel_lz
For more information see https://docs.lammps.org/err0013 (src/input.cpp:665)
ERROR on proc 9: Substitution for illegal variable gel_lz
For more information see https://docs.lammps.org/err0013 (src/input.cpp:665)
ERROR on proc 42: Substitution for illegal variable gel_lz
For more information see https://docs.lammps.org/err0013 (src/input.cpp:665)
ERROR on proc 13: Substitution for illegal variable gel_lz
For more information see https://docs.lammps.org/err0013 (src/input.cpp:665)
ERROR on proc 67: Substitution for illegal variable gel_lz
For more information see https://docs.lammps.org/err0013 (src/input.cpp:665)
ERROR on proc 14: Substitution for illegal variable gel_lz
For more information see https://docs.lammps.org/err0013 (src/input.cpp:665)
ERROR on proc 64: Substitution for illegal variable gel_lz
For more information see https://docs.lammps.org/err0013 (src/input.cpp:665)
ERROR on proc 37: Substitution for illegal variable gel_lz
For more information see https://docs.lammps.org/err0013 (src/input.cpp:665)
ERROR on proc 38: Substitution for illegal variable gel_lz
For more information see https://docs.lammps.org/err0013 (src/input.cpp:665)
ERROR on proc 99: Substitution for illegal variable gel_lz
For more information see https://docs.lammps.org/err0013 (src/input.cpp:665)
ERROR on proc 98: Substitution for illegal variable gel_lz
For more information see https://docs.lammps.org/err0013 (src/input.cpp:665)
ERROR on proc 45: Substitution for illegal variable gel_lz
For more information see https://docs.lammps.org/err0013 (src/input.cpp:665)
ERROR on proc 113: Substitution for illegal variable gel_lz
For more information see https://docs.lammps.org/err0013 (src/input.cpp:665)
ERROR on proc 76: Substitution for illegal variable gel_lz
For more information see https://docs.lammps.org/err0013 (src/input.cpp:665)
ERROR on proc 78: Substitution for illegal variable gel_lz
For more information see https://docs.lammps.org/err0013 (src/input.cpp:665)
ERROR on proc 16: Substitution for illegal variable gel_lz
For more information see https://docs.lammps.org/err0013 (src/input.cpp:665)
ERROR on proc 44: Substitution for illegal variable gel_lz
For more information see https://docs.lammps.org/err0013 (src/input.cpp:665)
ERROR on proc 75: Substitution for illegal variable gel_lz
For more information see https://docs.lammps.org/err0013 (src/input.cpp:665)
ERROR on proc 10: Substitution for illegal variable gel_lz
For more information see https://docs.lammps.org/err0013 (src/input.cpp:665)
ERROR on proc 55: Substitution for illegal variable gel_lz
For more information see https://docs.lammps.org/err0013 (src/input.cpp:665)
ERROR on proc 52: Substitution for illegal variable gel_lz
For more information see https://docs.lammps.org/err0013 (src/input.cpp:665)
ERROR on proc 91: Substitution for illegal variable gel_lz
For more information see https://docs.lammps.org/err0013 (src/input.cpp:665)
ERROR on proc 89: Substitution for illegal variable gel_lz
For more information see https://docs.lammps.org/err0013 (src/input.cpp:665)
ERROR on proc 30: Substitution for illegal variable gel_lz
For more information see https://docs.lammps.org/err0013 (src/input.cpp:665)
ERROR on proc 33: Substitution for illegal variable gel_lz
For more information see https://docs.lammps.org/err0013 (src/input.cpp:665)
ERROR on proc 102: Substitution for illegal variable gel_lz
For more information see https://docs.lammps.org/err0013 (src/input.cpp:665)
ERROR on proc 26: Substitution for illegal variable gel_lz
For more information see https://docs.lammps.org/err0013 (src/input.cpp:665)
ERROR on proc 96: Substitution for illegal variable gel_lz
For more information see https://docs.lammps.org/err0013 (src/input.cpp:665)
ERROR on proc 317: Substitution for illegal variable gel_lz
For more information see https://docs.lammps.org/err0013 (src/input.cpp:665)
ERROR on proc 94: Substitution for illegal variable gel_lz
For more information see https://docs.lammps.org/err0013 (src/input.cpp:665)
ERROR on proc 259: Substitution for illegal variable gel_lz
For more information see https://docs.lammps.org/err0013 (src/input.cpp:665)
ERROR on proc 193: Substitution for illegal variable gel_lz
For more information see https://docs.lammps.org/err0013 (src/input.cpp:665)
ERROR on proc 295: Substitution for illegal variable gel_lz
For more information see https://docs.lammps.org/err0013 (src/input.cpp:665)
ERROR on proc 237: Substitution for illegal variable gel_lz
For more information see https://docs.lammps.org/err0013 (src/input.cpp:665)
ERROR on proc 332: Substitution for illegal variable gel_lz
For more information see https://docs.lammps.org/err0013 (src/input.cpp:665)
ERROR on proc 69: Substitution for illegal variable gel_lz
For more information see https://docs.lammps.org/err0013 (src/input.cpp:665)
ERROR on proc 342: Substitution for illegal variable gel_lz
For more information see https://docs.lammps.org/err0013 (src/input.cpp:665)
ERROR on proc 164: Substitution for illegal variable gel_lz
For more information see https://docs.lammps.org/err0013 (src/input.cpp:665)
ERROR on proc 339: Substitution for illegal variable gel_lz
For more information see https://docs.lammps.org/err0013 (src/input.cpp:665)
ERROR on proc 190: Substitution for illegal variable gel_lz
For more information see https://docs.lammps.org/err0013 (src/input.cpp:665)
ERROR on proc 318: Substitution for illegal variable gel_lz
For more information see https://docs.lammps.org/err0013 (src/input.cpp:665)
ERROR on proc 119: Substitution for illegal variable gel_lz
For more information see https://docs.lammps.org/err0013 (src/input.cpp:665)
ERROR on proc 177: Substitution for illegal variable gel_lz
For more information see https://docs.lammps.org/err0013 (src/input.cpp:665)
ERROR on proc 337: Substitution for illegal variable gel_lz
For more information see https://docs.lammps.org/err0013 (src/input.cpp:665)
ERROR on proc 319: Substitution for illegal variable gel_lz
For more information see https://docs.lammps.org/err0013 (src/input.cpp:665)
ERROR on proc 327: Substitution for illegal variable gel_lz
For more information see https://docs.lammps.org/err0013 (src/input.cpp:665)
ERROR on proc 325: Substitution for illegal variable gel_lz
For more information see https://docs.lammps.org/err0013 (src/input.cpp:665)
ERROR on proc 333: Substitution for illegal variable gel_lz
For more information see https://docs.lammps.org/err0013 (src/input.cpp:665)
ERROR on proc 359: Substitution for illegal variable gel_lz
For more information see https://docs.lammps.org/err0013 (src/input.cpp:665)
ERROR on proc 197: Substitution for illegal variable gel_lz
For more information see https://docs.lammps.org/err0013 (src/input.cpp:665)
ERROR on proc 308: Substitution for illegal variable gel_lz
For more information see https://docs.lammps.org/err0013 (src/input.cpp:665)
ERROR on proc 18: Substitution for illegal variable gel_lz
For more information see https://docs.lammps.org/err0013 (src/input.cpp:665)
ERROR on proc 344: Substitution for illegal variable gel_lz
For more information see https://docs.lammps.org/err0013 (src/input.cpp:665)
ERROR on proc 335: Substitution for illegal variable gel_lz
For more information see https://docs.lammps.org/err0013 (src/input.cpp:665)
ERROR on proc 334: Substitution for illegal variable gel_lz
For more information see https://docs.lammps.org/err0013 (src/input.cpp:665)
ERROR on proc 206: Substitution for illegal variable gel_lz
For more information see https://docs.lammps.org/err0013 (src/input.cpp:665)
ERROR on proc 350: Substitution for illegal variable gel_lz
For more information see https://docs.lammps.org/err0013 (src/input.cpp:665)
ERROR on proc 198: Substitution for illegal variable gel_lz
For more information see https://docs.lammps.org/err0013 (src/input.cpp:665)
ERROR on proc 282: Substitution for illegal variable gel_lz
For more information see https://docs.lammps.org/err0013 (src/input.cpp:665)
ERROR on proc 283: Substitution for illegal variable gel_lz
For more information see https://docs.lammps.org/err0013 (src/input.cpp:665)
ERROR on proc 286: Substitution for illegal variable gel_lz
For more information see https://docs.lammps.org/err0013 (src/input.cpp:665)
ERROR on proc 176: Substitution for illegal variable gel_lz
For more information see https://docs.lammps.org/err0013 (src/input.cpp:665)
ERROR on proc 287: Substitution for illegal variable gel_lz
For more information see https://docs.lammps.org/err0013 (src/input.cpp:665)
ERROR on proc 126: Substitution for illegal variable gel_lz
For more information see https://docs.lammps.org/err0013 (src/input.cpp:665)
ERROR on proc 41: Substitution for illegal variable gel_lz
For more information see https://docs.lammps.org/err0013 (src/input.cpp:665)
ERROR on proc 95: Substitution for illegal variable gel_lz
For more information see https://docs.lammps.org/err0013 (src/input.cpp:665)
ERROR on proc 299: Substitution for illegal variable gel_lz
For more information see https://docs.lammps.org/err0013 (src/input.cpp:665)
ERROR on proc 134: Substitution for illegal variable gel_lz
For more information see https://docs.lammps.org/err0013 (src/input.cpp:665)
ERROR on proc 25: Substitution for illegal variable gel_lz
For more information see https://docs.lammps.org/err0013 (src/input.cpp:665)
ERROR on proc 63: Substitution for illegal variable gel_lz
For more information see https://docs.lammps.org/err0013 (src/input.cpp:665)
ERROR on proc 60: Substitution for illegal variable gel_lz
For more information see https://docs.lammps.org/err0013 (src/input.cpp:665)
ERROR on proc 48: Substitution for illegal variable gel_lz
For more information see https://docs.lammps.org/err0013 (src/input.cpp:665)
ERROR on proc 263: Substitution for illegal variable gel_lz
For more information see https://docs.lammps.org/err0013 (src/input.cpp:665)
ERROR on proc 227: Substitution for illegal variable gel_lz
For more information see https://docs.lammps.org/err0013 (src/input.cpp:665)
ERROR on proc 35: Substitution for illegal variable gel_lz
For more information see https://docs.lammps.org/err0013 (src/input.cpp:665)
ERROR on proc 4: Substitution for illegal variable gel_lz
For more information see https://docs.lammps.org/err0013 (src/input.cpp:665)
ERROR on proc 12: Substitution for illegal variable gel_lz
For more information see https://docs.lammps.org/err0013 (src/input.cpp:665)
ERROR on proc 97: Substitution for illegal variable gel_lz
For more information see https://docs.lammps.org/err0013 (src/input.cpp:665)
ERROR on proc 70: Substitution for illegal variable gel_lz
For more information see https://docs.lammps.org/err0013 (src/input.cpp:665)
ERROR on proc 302: Substitution for illegal variable gel_lz
For more information see https://docs.lammps.org/err0013 (src/input.cpp:665)
ERROR on proc 191: Substitution for illegal variable gel_lz
For more information see https://docs.lammps.org/err0013 (src/input.cpp:665)
ERROR on proc 28: Substitution for illegal variable gel_lz
For more information see https://docs.lammps.org/err0013 (src/input.cpp:665)
ERROR on proc 115: Substitution for illegal variable gel_lz
For more information see https://docs.lammps.org/err0013 (src/input.cpp:665)
ERROR on proc 46: Substitution for illegal variable gel_lz
For more information see https://docs.lammps.org/err0013 (src/input.cpp:665)
ERROR on proc 39: Substitution for illegal variable gel_lz
For more information see https://docs.lammps.org/err0013 (src/input.cpp:665)
ERROR on proc 116: Substitution for illegal variable gel_lz
For more information see https://docs.lammps.org/err0013 (src/input.cpp:665)
ERROR on proc 77: Substitution for illegal variable gel_lz
For more information see https://docs.lammps.org/err0013 (src/input.cpp:665)
ERROR on proc 29: Substitution for illegal variable gel_lz
For more information see https://docs.lammps.org/err0013 (src/input.cpp:665)
ERROR on proc 80: Substitution for illegal variable gel_lz
For more information see https://docs.lammps.org/err0013 (src/input.cpp:665)
ERROR on proc 103: Substitution for illegal variable gel_lz
For more information see https://docs.lammps.org/err0013 (src/input.cpp:665)
ERROR on proc 104: Substitution for illegal variable gel_lz
For more information see https://docs.lammps.org/err0013 (src/input.cpp:665)
ERROR on proc 117: Substitution for illegal variable gel_lz
For more information see https://docs.lammps.org/err0013 (src/input.cpp:665)
ERROR on proc 300: Substitution for illegal variable gel_lz
For more information see https://docs.lammps.org/err0013 (src/input.cpp:665)
ERROR on proc 222: Substitution for illegal variable gel_lz
For more information see https://docs.lammps.org/err0013 (src/input.cpp:665)
ERROR on proc 53: Substitution for illegal variable gel_lz
For more information see https://docs.lammps.org/err0013 (src/input.cpp:665)
ERROR on proc 93: Substitution for illegal variable gel_lz
For more information see https://docs.lammps.org/err0013 (src/input.cpp:665)
ERROR on proc 58: Substitution for illegal variable gel_lz
For more information see https://docs.lammps.org/err0013 (src/input.cpp:665)
ERROR on proc 59: Substitution for illegal variable gel_lz
For more information see https://docs.lammps.org/err0013 (src/input.cpp:665)
ERROR on proc 112: Substitution for illegal variable gel_lz
For more information see https://docs.lammps.org/err0013 (src/input.cpp:665)
ERROR on proc 114: Substitution for illegal variable gel_lz
For more information see https://docs.lammps.org/err0013 (src/input.cpp:665)
ERROR on proc 87: Substitution for illegal variable gel_lz
For more information see https://docs.lammps.org/err0013 (src/input.cpp:665)
ERROR on proc 343: Substitution for illegal variable gel_lz
For more information see https://docs.lammps.org/err0013 (src/input.cpp:665)
ERROR on proc 185: Substitution for illegal variable gel_lz
For more information see https://docs.lammps.org/err0013 (src/input.cpp:665)
ERROR on proc 56: Substitution for illegal variable gel_lz
For more information see https://docs.lammps.org/err0013 (src/input.cpp:665)
ERROR on proc 62: Substitution for illegal variable gel_lz
For more information see https://docs.lammps.org/err0013 (src/input.cpp:665)
ERROR on proc 355: Substitution for illegal variable gel_lz
For more information see https://docs.lammps.org/err0013 (src/input.cpp:665)
ERROR on proc 195: Substitution for illegal variable gel_lz
For more information see https://docs.lammps.org/err0013 (src/input.cpp:665)
ERROR on proc 88: Substitution for illegal variable gel_lz
For more information see https://docs.lammps.org/err0013 (src/input.cpp:665)
ERROR on proc 90: Substitution for illegal variable gel_lz
For more information see https://docs.lammps.org/err0013 (src/input.cpp:665)
ERROR on proc 79: Substitution for illegal variable gel_lz
For more information see https://docs.lammps.org/err0013 (src/input.cpp:665)
ERROR on proc 111: Substitution for illegal variable gel_lz
For more information see https://docs.lammps.org/err0013 (src/input.cpp:665)
ERROR on proc 84: Substitution for illegal variable gel_lz
For more information see https://docs.lammps.org/err0013 (src/input.cpp:665)
ERROR on proc 101: Substitution for illegal variable gel_lz
For more information see https://docs.lammps.org/err0013 (src/input.cpp:665)
ERROR on proc 61: Substitution for illegal variable gel_lz
For more information see https://docs.lammps.org/err0013 (src/input.cpp:665)
ERROR on proc 86: Substitution for illegal variable gel_lz
For more information see https://docs.lammps.org/err0013 (src/input.cpp:665)
ERROR on proc 109: Substitution for illegal variable gel_lz
For more information see https://docs.lammps.org/err0013 (src/input.cpp:665)
ERROR on proc 85: Substitution for illegal variable gel_lz
For more information see https://docs.lammps.org/err0013 (src/input.cpp:665)
ERROR on proc 353: Substitution for illegal variable gel_lz
For more information see https://docs.lammps.org/err0013 (src/input.cpp:665)
ERROR on proc 232: Substitution for illegal variable gel_lz
For more information see https://docs.lammps.org/err0013 (src/input.cpp:665)
ERROR on proc 74: Substitution for illegal variable gel_lz
For more information see https://docs.lammps.org/err0013 (src/input.cpp:665)
ERROR on proc 100: Substitution for illegal variable gel_lz
For more information see https://docs.lammps.org/err0013 (src/input.cpp:665)
ERROR on proc 105: Substitution for illegal variable gel_lz
For more information see https://docs.lammps.org/err0013 (src/input.cpp:665)
ERROR on proc 54: Substitution for illegal variable gel_lz
For more information see https://docs.lammps.org/err0013 (src/input.cpp:665)
ERROR on proc 110: Substitution for illegal variable gel_lz
For more information see https://docs.lammps.org/err0013 (src/input.cpp:665)
ERROR on proc 92: Substitution for illegal variable gel_lz
For more information see https://docs.lammps.org/err0013 (src/input.cpp:665)
ERROR on proc 5: Substitution for illegal variable gel_lz
For more information see https://docs.lammps.org/err0013 (src/input.cpp:665)
ERROR on proc 356: Substitution for illegal variable gel_lz
For more information see https://docs.lammps.org/err0013 (src/input.cpp:665)
ERROR on proc 210: Substitution for illegal variable gel_lz
For more information see https://docs.lammps.org/err0013 (src/input.cpp:665)
ERROR on proc 346: Substitution for illegal variable gel_lz
For more information see https://docs.lammps.org/err0013 (src/input.cpp:665)
ERROR on proc 220: Substitution for illegal variable gel_lz
For more information see https://docs.lammps.org/err0013 (src/input.cpp:665)
ERROR on proc 351: Substitution for illegal variable gel_lz
For more information see https://docs.lammps.org/err0013 (src/input.cpp:665)
ERROR on proc 221: Substitution for illegal variable gel_lz
For more information see https://docs.lammps.org/err0013 (src/input.cpp:665)
ERROR on proc 341: Substitution for illegal variable gel_lz
For more information see https://docs.lammps.org/err0013 (src/input.cpp:665)
ERROR on proc 211: Substitution for illegal variable gel_lz
For more information see https://docs.lammps.org/err0013 (src/input.cpp:665)
ERROR on proc 281: Substitution for illegal variable gel_lz
For more information see https://docs.lammps.org/err0013 (src/input.cpp:665)
ERROR on proc 324: Substitution for illegal variable gel_lz
For more information see https://docs.lammps.org/err0013 (src/input.cpp:665)
ERROR on proc 320: Substitution for illegal variable gel_lz
For more information see https://docs.lammps.org/err0013 (src/input.cpp:665)
ERROR on proc 347: Substitution for illegal variable gel_lz
For more information see https://docs.lammps.org/err0013 (src/input.cpp:665)
ERROR on proc 349: Substitution for illegal variable gel_lz
For more information see https://docs.lammps.org/err0013 (src/input.cpp:665)
ERROR on proc 328: Substitution for illegal variable gel_lz
For more information see https://docs.lammps.org/err0013 (src/input.cpp:665)
ERROR on proc 321: Substitution for illegal variable gel_lz
For more information see https://docs.lammps.org/err0013 (src/input.cpp:665)
ERROR on proc 314: Substitution for illegal variable gel_lz
For more information see https://docs.lammps.org/err0013 (src/input.cpp:665)
ERROR on proc 322: Substitution for illegal variable gel_lz
For more information see https://docs.lammps.org/err0013 (src/input.cpp:665)
ERROR on proc 330: Substitution for illegal variable gel_lz
For more information see https://docs.lammps.org/err0013 (src/input.cpp:665)
ERROR on proc 304: Substitution for illegal variable gel_lz
For more information see https://docs.lammps.org/err0013 (src/input.cpp:665)
ERROR on proc 306: Substitution for illegal variable gel_lz
For more information see https://docs.lammps.org/err0013 (src/input.cpp:665)
ERROR on proc 207: Substitution for illegal variable gel_lz
For more information see https://docs.lammps.org/err0013 (src/input.cpp:665)
ERROR on proc 307: Substitution for illegal variable gel_lz
For more information see https://docs.lammps.org/err0013 (src/input.cpp:665)
ERROR on proc 311: Substitution for illegal variable gel_lz
For more information see https://docs.lammps.org/err0013 (src/input.cpp:665)
ERROR on proc 352: Substitution for illegal variable gel_lz
For more information see https://docs.lammps.org/err0013 (src/input.cpp:665)
ERROR on proc 329: Substitution for illegal variable gel_lz
For more information see https://docs.lammps.org/err0013 (src/input.cpp:665)
ERROR on proc 305: Substitution for illegal variable gel_lz
For more information see https://docs.lammps.org/err0013 (src/input.cpp:665)
ERROR on proc 238: Substitution for illegal variable gel_lz
For more information see https://docs.lammps.org/err0013 (src/input.cpp:665)
ERROR on proc 358: Substitution for illegal variable gel_lz
For more information see https://docs.lammps.org/err0013 (src/input.cpp:665)
ERROR on proc 278: Substitution for illegal variable gel_lz
For more information see https://docs.lammps.org/err0013 (src/input.cpp:665)
ERROR on proc 240: Substitution for illegal variable gel_lz
For more information see https://docs.lammps.org/err0013 (src/input.cpp:665)
ERROR on proc 273: Substitution for illegal variable gel_lz
For more information see https://docs.lammps.org/err0013 (src/input.cpp:665)
ERROR on proc 264: Substitution for illegal variable gel_lz
For more information see https://docs.lammps.org/err0013 (src/input.cpp:665)
ERROR on proc 243: Substitution for illegal variable gel_lz
For more information see https://docs.lammps.org/err0013 (src/input.cpp:665)
ERROR on proc 290: Substitution for illegal variable gel_lz
For more information see https://docs.lammps.org/err0013 (src/input.cpp:665)
ERROR on proc 265: Substitution for illegal variable gel_lz
For more information see https://docs.lammps.org/err0013 (src/input.cpp:665)
ERROR on proc 251: Substitution for illegal variable gel_lz
For more information see https://docs.lammps.org/err0013 (src/input.cpp:665)
ERROR on proc 245: Substitution for illegal variable gel_lz
For more information see https://docs.lammps.org/err0013 (src/input.cpp:665)
ERROR on proc 291: Substitution for illegal variable gel_lz
For more information see https://docs.lammps.org/err0013 (src/input.cpp:665)
ERROR on proc 260: Substitution for illegal variable gel_lz
For more information see https://docs.lammps.org/err0013 (src/input.cpp:665)
ERROR on proc 247: Substitution for illegal variable gel_lz
For more information see https://docs.lammps.org/err0013 (src/input.cpp:665)
ERROR on proc 258: Substitution for illegal variable gel_lz
For more information see https://docs.lammps.org/err0013 (src/input.cpp:665)
ERROR on proc 279: Substitution for illegal variable gel_lz
For more information see https://docs.lammps.org/err0013 (src/input.cpp:665)
ERROR on proc 254: Substitution for illegal variable gel_lz
For more information see https://docs.lammps.org/err0013 (src/input.cpp:665)
ERROR on proc 249: Substitution for illegal variable gel_lz
For more information see https://docs.lammps.org/err0013 (src/input.cpp:665)
ERROR on proc 250: Substitution for illegal variable gel_lz
For more information see https://docs.lammps.org/err0013 (src/input.cpp:665)
ERROR on proc 158: Substitution for illegal variable gel_lz
For more information see https://docs.lammps.org/err0013 (src/input.cpp:665)
ERROR on proc 261: Substitution for illegal variable gel_lz
For more information see https://docs.lammps.org/err0013 (src/input.cpp:665)
ERROR on proc 244: Substitution for illegal variable gel_lz
For more information see https://docs.lammps.org/err0013 (src/input.cpp:665)
ERROR on proc 276: Substitution for illegal variable gel_lz
For more information see https://docs.lammps.org/err0013 (src/input.cpp:665)
ERROR on proc 269: Substitution for illegal variable gel_lz
For more information see https://docs.lammps.org/err0013 (src/input.cpp:665)
ERROR on proc 277: Substitution for illegal variable gel_lz
For more information see https://docs.lammps.org/err0013 (src/input.cpp:665)
ERROR on proc 248: Substitution for illegal variable gel_lz
For more information see https://docs.lammps.org/err0013 (src/input.cpp:665)
ERROR on proc 294: Substitution for illegal variable gel_lz
For more information see https://docs.lammps.org/err0013 (src/input.cpp:665)
ERROR on proc 331: Substitution for illegal variable gel_lz
For more information see https://docs.lammps.org/err0013 (src/input.cpp:665)
ERROR on proc 323: Substitution for illegal variable gel_lz
For more information see https://docs.lammps.org/err0013 (src/input.cpp:665)
ERROR on proc 338: Substitution for illegal variable gel_lz
For more information see https://docs.lammps.org/err0013 (src/input.cpp:665)
ERROR on proc 293: Substitution for illegal variable gel_lz
For more information see https://docs.lammps.org/err0013 (src/input.cpp:665)
ERROR on proc 262: Substitution for illegal variable gel_lz
For more information see https://docs.lammps.org/err0013 (src/input.cpp:665)
ERROR on proc 296: Substitution for illegal variable gel_lz
For more information see https://docs.lammps.org/err0013 (src/input.cpp:665)
ERROR on proc 267: Substitution for illegal variable gel_lz
For more information see https://docs.lammps.org/err0013 (src/input.cpp:665)
ERROR on proc 298: Substitution for illegal variable gel_lz
For more information see https://docs.lammps.org/err0013 (src/input.cpp:665)
ERROR on proc 326: Substitution for illegal variable gel_lz
For more information see https://docs.lammps.org/err0013 (src/input.cpp:665)
ERROR on proc 199: Substitution for illegal variable gel_lz
For more information see https://docs.lammps.org/err0013 (src/input.cpp:665)
ERROR on proc 316: Substitution for illegal variable gel_lz
For more information see https://docs.lammps.org/err0013 (src/input.cpp:665)
ERROR on proc 357: Substitution for illegal variable gel_lz
For more information see https://docs.lammps.org/err0013 (src/input.cpp:665)
ERROR on proc 255: Substitution for illegal variable gel_lz
For more information see https://docs.lammps.org/err0013 (src/input.cpp:665)
ERROR on proc 303: Substitution for illegal variable gel_lz
For more information see https://docs.lammps.org/err0013 (src/input.cpp:665)
ERROR on proc 340: Substitution for illegal variable gel_lz
For more information see https://docs.lammps.org/err0013 (src/input.cpp:665)
ERROR on proc 285: Substitution for illegal variable gel_lz
For more information see https://docs.lammps.org/err0013 (src/input.cpp:665)
ERROR on proc 345: Substitution for illegal variable gel_lz
For more information see https://docs.lammps.org/err0013 (src/input.cpp:665)
ERROR on proc 284: Substitution for illegal variable gel_lz
For more information see https://docs.lammps.org/err0013 (src/input.cpp:665)
ERROR on proc 241: Substitution for illegal variable gel_lz
For more information see https://docs.lammps.org/err0013 (src/input.cpp:665)
ERROR on proc 242: Substitution for illegal variable gel_lz
For more information see https://docs.lammps.org/err0013 (src/input.cpp:665)
ERROR on proc 122: Substitution for illegal variable gel_lz
For more information see https://docs.lammps.org/err0013 (src/input.cpp:665)
ERROR on proc 336: Substitution for illegal variable gel_lz
For more information see https://docs.lammps.org/err0013 (src/input.cpp:665)
ERROR on proc 309: Substitution for illegal variable gel_lz
For more information see https://docs.lammps.org/err0013 (src/input.cpp:665)
ERROR on proc 274: Substitution for illegal variable gel_lz
For more information see https://docs.lammps.org/err0013 (src/input.cpp:665)
ERROR on proc 315: Substitution for illegal variable gel_lz
For more information see https://docs.lammps.org/err0013 (src/input.cpp:665)
ERROR on proc 256: Substitution for illegal variable gel_lz
For more information see https://docs.lammps.org/err0013 (src/input.cpp:665)
ERROR on proc 147: Substitution for illegal variable gel_lz
For more information see https://docs.lammps.org/err0013 (src/input.cpp:665)
ERROR on proc 280: Substitution for illegal variable gel_lz
For more information see https://docs.lammps.org/err0013 (src/input.cpp:665)
ERROR on proc 143: Substitution for illegal variable gel_lz
For more information see https://docs.lammps.org/err0013 (src/input.cpp:665)
ERROR on proc 348: Substitution for illegal variable gel_lz
For more information see https://docs.lammps.org/err0013 (src/input.cpp:665)
ERROR on proc 152: Substitution for illegal variable gel_lz
For more information see https://docs.lammps.org/err0013 (src/input.cpp:665)
ERROR on proc 272: Substitution for illegal variable gel_lz
For more information see https://docs.lammps.org/err0013 (src/input.cpp:665)
ERROR on proc 156: Substitution for illegal variable gel_lz
For more information see https://docs.lammps.org/err0013 (src/input.cpp:665)
ERROR on proc 253: Substitution for illegal variable gel_lz
For more information see https://docs.lammps.org/err0013 (src/input.cpp:665)
ERROR on proc 127: Substitution for illegal variable gel_lz
For more information see https://docs.lammps.org/err0013 (src/input.cpp:665)
ERROR on proc 268: Substitution for illegal variable gel_lz
For more information see https://docs.lammps.org/err0013 (src/input.cpp:665)
ERROR on proc 142: Substitution for illegal variable gel_lz
For more information see https://docs.lammps.org/err0013 (src/input.cpp:665)
ERROR on proc 266: Substitution for illegal variable gel_lz
For more information see https://docs.lammps.org/err0013 (src/input.cpp:665)
ERROR on proc 149: Substitution for illegal variable gel_lz
For more information see https://docs.lammps.org/err0013 (src/input.cpp:665)
ERROR on proc 313: Substitution for illegal variable gel_lz
For more information see https://docs.lammps.org/err0013 (src/input.cpp:665)
ERROR on proc 153: Substitution for illegal variable gel_lz
For more information see https://docs.lammps.org/err0013 (src/input.cpp:665)
ERROR on proc 252: Substitution for illegal variable gel_lz
For more information see https://docs.lammps.org/err0013 (src/input.cpp:665)
ERROR on proc 131: Substitution for illegal variable gel_lz
For more information see https://docs.lammps.org/err0013 (src/input.cpp:665)
ERROR on proc 354: Substitution for illegal variable gel_lz
For more information see https://docs.lammps.org/err0013 (src/input.cpp:665)
ERROR on proc 175: Substitution for illegal variable gel_lz
For more information see https://docs.lammps.org/err0013 (src/input.cpp:665)
ERROR on proc 292: Substitution for illegal variable gel_lz
For more information see https://docs.lammps.org/err0013 (src/input.cpp:665)
ERROR on proc 168: Substitution for illegal variable gel_lz
For more information see https://docs.lammps.org/err0013 (src/input.cpp:665)
ERROR on proc 275: Substitution for illegal variable gel_lz
For more information see https://docs.lammps.org/err0013 (src/input.cpp:665)
ERROR on proc 125: Substitution for illegal variable gel_lz
For more information see https://docs.lammps.org/err0013 (src/input.cpp:665)
ERROR on proc 246: Substitution for illegal variable gel_lz
For more information see https://docs.lammps.org/err0013 (src/input.cpp:665)
ERROR on proc 213: Substitution for illegal variable gel_lz
For more information see https://docs.lammps.org/err0013 (src/input.cpp:665)
ERROR on proc 288: Substitution for illegal variable gel_lz
For more information see https://docs.lammps.org/err0013 (src/input.cpp:665)
ERROR on proc 154: Substitution for illegal variable gel_lz
For more information see https://docs.lammps.org/err0013 (src/input.cpp:665)
ERROR on proc 257: Substitution for illegal variable gel_lz
For more information see https://docs.lammps.org/err0013 (src/input.cpp:665)
ERROR on proc 235: Substitution for illegal variable gel_lz
For more information see https://docs.lammps.org/err0013 (src/input.cpp:665)
ERROR on proc 312: Substitution for illegal variable gel_lz
For more information see https://docs.lammps.org/err0013 (src/input.cpp:665)
ERROR on proc 162: Substitution for illegal variable gel_lz
For more information see https://docs.lammps.org/err0013 (src/input.cpp:665)
ERROR on proc 271: Substitution for illegal variable gel_lz
For more information see https://docs.lammps.org/err0013 (src/input.cpp:665)
ERROR on proc 169: Substitution for illegal variable gel_lz
For more information see https://docs.lammps.org/err0013 (src/input.cpp:665)
ERROR on proc 297: Substitution for illegal variable gel_lz
For more information see https://docs.lammps.org/err0013 (src/input.cpp:665)
ERROR on proc 141: Substitution for illegal variable gel_lz
For more information see https://docs.lammps.org/err0013 (src/input.cpp:665)
ERROR on proc 289: Substitution for illegal variable gel_lz
For more information see https://docs.lammps.org/err0013 (src/input.cpp:665)
ERROR on proc 174: Substitution for illegal variable gel_lz
For more information see https://docs.lammps.org/err0013 (src/input.cpp:665)
ERROR on proc 310: Substitution for illegal variable gel_lz
For more information see https://docs.lammps.org/err0013 (src/input.cpp:665)
ERROR on proc 132: Substitution for illegal variable gel_lz
For more information see https://docs.lammps.org/err0013 (src/input.cpp:665)
ERROR on proc 301: Substitution for illegal variable gel_lz
For more information see https://docs.lammps.org/err0013 (src/input.cpp:665)
ERROR on proc 133: Substitution for illegal variable gel_lz
For more information see https://docs.lammps.org/err0013 (src/input.cpp:665)
ERROR on proc 270: Substitution for illegal variable gel_lz
For more information see https://docs.lammps.org/err0013 (src/input.cpp:665)
ERROR on proc 163: Substitution for illegal variable gel_lz
For more information see https://docs.lammps.org/err0013 (src/input.cpp:665)
ERROR on proc 123: Substitution for illegal variable gel_lz
For more information see https://docs.lammps.org/err0013 (src/input.cpp:665)
ERROR on proc 178: Substitution for illegal variable gel_lz
For more information see https://docs.lammps.org/err0013 (src/input.cpp:665)
ERROR on proc 181: Substitution for illegal variable gel_lz
For more information see https://docs.lammps.org/err0013 (src/input.cpp:665)
ERROR on proc 121: Substitution for illegal variable gel_lz
For more information see https://docs.lammps.org/err0013 (src/input.cpp:665)
ERROR on proc 138: Substitution for illegal variable gel_lz
For more information see https://docs.lammps.org/err0013 (src/input.cpp:665)
ERROR on proc 136: Substitution for illegal variable gel_lz
For more information see https://docs.lammps.org/err0013 (src/input.cpp:665)
ERROR on proc 183: Substitution for illegal variable gel_lz
For more information see https://docs.lammps.org/err0013 (src/input.cpp:665)
ERROR on proc 124: Substitution for illegal variable gel_lz
For more information see https://docs.lammps.org/err0013 (src/input.cpp:665)
ERROR on proc 218: Substitution for illegal variable gel_lz
For more information see https://docs.lammps.org/err0013 (src/input.cpp:665)
ERROR on proc 157: Substitution for illegal variable gel_lz
For more information see https://docs.lammps.org/err0013 (src/input.cpp:665)
ERROR on proc 145: Substitution for illegal variable gel_lz
For more information see https://docs.lammps.org/err0013 (src/input.cpp:665)
ERROR on proc 159: Substitution for illegal variable gel_lz
For more information see https://docs.lammps.org/err0013 (src/input.cpp:665)
ERROR on proc 187: Substitution for illegal variable gel_lz
For more information see https://docs.lammps.org/err0013 (src/input.cpp:665)
ERROR on proc 130: Substitution for illegal variable gel_lz
For more information see https://docs.lammps.org/err0013 (src/input.cpp:665)
ERROR on proc 128: Substitution for illegal variable gel_lz
For more information see https://docs.lammps.org/err0013 (src/input.cpp:665)
ERROR on proc 170: Substitution for illegal variable gel_lz
For more information see https://docs.lammps.org/err0013 (src/input.cpp:665)
ERROR on proc 188: Substitution for illegal variable gel_lz
For more information see https://docs.lammps.org/err0013 (src/input.cpp:665)
ERROR on proc 135: Substitution for illegal variable gel_lz
For more information see https://docs.lammps.org/err0013 (src/input.cpp:665)
ERROR on proc 150: Substitution for illegal variable gel_lz
For more information see https://docs.lammps.org/err0013 (src/input.cpp:665)
ERROR on proc 219: Substitution for illegal variable gel_lz
For more information see https://docs.lammps.org/err0013 (src/input.cpp:665)
ERROR on proc 217: Substitution for illegal variable gel_lz
For more information see https://docs.lammps.org/err0013 (src/input.cpp:665)
ERROR on proc 201: Substitution for illegal variable gel_lz
For more information see https://docs.lammps.org/err0013 (src/input.cpp:665)
ERROR on proc 225: Substitution for illegal variable gel_lz
For more information see https://docs.lammps.org/err0013 (src/input.cpp:665)
ERROR on proc 167: Substitution for illegal variable gel_lz
For more information see https://docs.lammps.org/err0013 (src/input.cpp:665)
ERROR on proc 236: Substitution for illegal variable gel_lz
For more information see https://docs.lammps.org/err0013 (src/input.cpp:665)
ERROR on proc 203: Substitution for illegal variable gel_lz
For more information see https://docs.lammps.org/err0013 (src/input.cpp:665)
ERROR on proc 146: Substitution for illegal variable gel_lz
For more information see https://docs.lammps.org/err0013 (src/input.cpp:665)
ERROR on proc 209: Substitution for illegal variable gel_lz
For more information see https://docs.lammps.org/err0013 (src/input.cpp:665)
ERROR on proc 202: Substitution for illegal variable gel_lz
For more information see https://docs.lammps.org/err0013 (src/input.cpp:665)
ERROR on proc 166: Substitution for illegal variable gel_lz
For more information see https://docs.lammps.org/err0013 (src/input.cpp:665)
ERROR on proc 216: Substitution for illegal variable gel_lz
For more information see https://docs.lammps.org/err0013 (src/input.cpp:665)
ERROR on proc 200: Substitution for illegal variable gel_lz
For more information see https://docs.lammps.org/err0013 (src/input.cpp:665)
ERROR on proc 234: Substitution for illegal variable gel_lz
For more information see https://docs.lammps.org/err0013 (src/input.cpp:665)
ERROR on proc 224: Substitution for illegal variable gel_lz
For more information see https://docs.lammps.org/err0013 (src/input.cpp:665)
ERROR on proc 228: Substitution for illegal variable gel_lz
For more information see https://docs.lammps.org/err0013 (src/input.cpp:665)
ERROR on proc 120: Substitution for illegal variable gel_lz
For more information see https://docs.lammps.org/err0013 (src/input.cpp:665)
ERROR on proc 182: Substitution for illegal variable gel_lz
For more information see https://docs.lammps.org/err0013 (src/input.cpp:665)
ERROR on proc 196: Substitution for illegal variable gel_lz
For more information see https://docs.lammps.org/err0013 (src/input.cpp:665)
ERROR on proc 229: Substitution for illegal variable gel_lz
For more information see https://docs.lammps.org/err0013 (src/input.cpp:665)
ERROR on proc 179: Substitution for illegal variable gel_lz
For more information see https://docs.lammps.org/err0013 (src/input.cpp:665)
ERROR on proc 215: Substitution for illegal variable gel_lz
For more information see https://docs.lammps.org/err0013 (src/input.cpp:665)
ERROR on proc 233: Substitution for illegal variable gel_lz
For more information see https://docs.lammps.org/err0013 (src/input.cpp:665)
ERROR on proc 148: Substitution for illegal variable gel_lz
For more information see https://docs.lammps.org/err0013 (src/input.cpp:665)
ERROR on proc 239: Substitution for illegal variable gel_lz
For more information see https://docs.lammps.org/err0013 (src/input.cpp:665)
ERROR on proc 165: Substitution for illegal variable gel_lz
For more information see https://docs.lammps.org/err0013 (src/input.cpp:665)
ERROR on proc 214: Substitution for illegal variable gel_lz
For more information see https://docs.lammps.org/err0013 (src/input.cpp:665)
ERROR on proc 140: Substitution for illegal variable gel_lz
For more information see https://docs.lammps.org/err0013 (src/input.cpp:665)
ERROR on proc 231: Substitution for illegal variable gel_lz
For more information see https://docs.lammps.org/err0013 (src/input.cpp:665)
ERROR on proc 180: Substitution for illegal variable gel_lz
For more information see https://docs.lammps.org/err0013 (src/input.cpp:665)
ERROR on proc 173: Substitution for illegal variable gel_lz
For more information see https://docs.lammps.org/err0013 (src/input.cpp:665)
ERROR on proc 205: Substitution for illegal variable gel_lz
For more information see https://docs.lammps.org/err0013 (src/input.cpp:665)
ERROR on proc 223: Substitution for illegal variable gel_lz
For more information see https://docs.lammps.org/err0013 (src/input.cpp:665)
ERROR on proc 212: Substitution for illegal variable gel_lz
For more information see https://docs.lammps.org/err0013 (src/input.cpp:665)
ERROR on proc 192: Substitution for illegal variable gel_lz
For more information see https://docs.lammps.org/err0013 (src/input.cpp:665)
ERROR on proc 186: Substitution for illegal variable gel_lz
For more information see https://docs.lammps.org/err0013 (src/input.cpp:665)
ERROR on proc 230: Substitution for illegal variable gel_lz
For more information see https://docs.lammps.org/err0013 (src/input.cpp:665)
ERROR on proc 208: Substitution for illegal variable gel_lz
For more information see https://docs.lammps.org/err0013 (src/input.cpp:665)
ERROR on proc 139: Substitution for illegal variable gel_lz
For more information see https://docs.lammps.org/err0013 (src/input.cpp:665)
ERROR on proc 184: Substitution for illegal variable gel_lz
For more information see https://docs.lammps.org/err0013 (src/input.cpp:665)
ERROR on proc 171: Substitution for illegal variable gel_lz
For more information see https://docs.lammps.org/err0013 (src/input.cpp:665)
ERROR on proc 172: Substitution for illegal variable gel_lz
For more information see https://docs.lammps.org/err0013 (src/input.cpp:665)
ERROR on proc 155: Substitution for illegal variable gel_lz
For more information see https://docs.lammps.org/err0013 (src/input.cpp:665)
ERROR on proc 194: Substitution for illegal variable gel_lz
For more information see https://docs.lammps.org/err0013 (src/input.cpp:665)
ERROR on proc 204: Substitution for illegal variable gel_lz
For more information see https://docs.lammps.org/err0013 (src/input.cpp:665)
ERROR on proc 189: Substitution for illegal variable gel_lz
For more information see https://docs.lammps.org/err0013 (src/input.cpp:665)
ERROR on proc 226: Substitution for illegal variable gel_lz
For more information see https://docs.lammps.org/err0013 (src/input.cpp:665)
ERROR on proc 137: Substitution for illegal variable gel_lz
For more information see https://docs.lammps.org/err0013 (src/input.cpp:665)
ERROR on proc 160: Substitution for illegal variable gel_lz
For more information see https://docs.lammps.org/err0013 (src/input.cpp:665)
ERROR on proc 151: Substitution for illegal variable gel_lz
For more information see https://docs.lammps.org/err0013 (src/input.cpp:665)
ERROR on proc 129: Substitution for illegal variable gel_lz
For more information see https://docs.lammps.org/err0013 (src/input.cpp:665)
ERROR on proc 161: Substitution for illegal variable gel_lz
For more information see https://docs.lammps.org/err0013 (src/input.cpp:665)
ERROR on proc 144: Substitution for illegal variable gel_lz
For more information see https://docs.lammps.org/err0013 (src/input.cpp:665)
======================================
Running post-processing...
======================================
Generating convergence plot...
Generating stress profiles...
No stress data found for walled_slab_support_tall_angle_8_1.0_1.0_10000000_1.0_1.0_1000000, skipping stress plots
No volume data found for walled_slab_support_tall_angle_8_1.0_1.0_10000000_1.0_1.0_1000000, skipping volume fraction plots
Generating piston plots...
Error: Piston position file not found: ./output_files/piston_data/piston_position_walled_slab_support_tall_angle_8_1.0_1.0_10000000_1.0_1.0_1000000.dat
Generating computational efficiency plot...
Found data file: ./data_files/walled_slab_support_tall_angle_8_1.0_1.0_10000000.data
Mobile atoms: 1079019
======================================
Done! Results are in: /jet/home/dpollard/Documents/lammps_runs/slab_with_flow_walled_slab_support_tall_angle_8_1.0_1.0_10000000_1.0_1.0_20260212_185117
======================================
