======================================
Working directory: /jet/home/dpollard/Documents/lammps_runs/slab_with_flow_walled_slab_support_5beads_tall_3_1.5_1.4_20000000_1.5_1.4_20260120_205735
Trajectory directory (scratch): /ocean/projects/chm250028p/dpollard/lammps_trajectories/slab_with_flow_walled_slab_support_5beads_tall_3_1.5_1.4_20000000_1.5_1.4_20260120_205735
======================================
Running LAMMPS in slab_with_flow with:
  dataname=walled_slab_support_5beads_tall_3_1.5_1.4_20000000
  epsSS=1.5, epsSP=1.4
  nsteps=50000, oldsteps=0, totsteps=50000
SLURM tasks per node: 120
SLURM CPUs per task: 1
SLURM_GPUS_ON_NODE: 
GPUs allocated: 
Running CPU-only with 480 tasks
LAMMPS (22 Jul 2025)
  using 1 OpenMP thread(s) per MPI task
using multi-threaded neighbor list subroutines
Reading data file ...
  orthogonal box = (-4.8877761 -4.8877761 -7.0788481) to (74.487776 74.487776 107.87885)
  6 by 8 by 10 MPI processor grid
  reading atoms ...
  1622491 atoms
  scanning bonds ...
  3 = max bonds/atom
  orthogonal box = (-4.8877761 -4.8877761 -7.0788481) to (74.487776 74.487776 107.87885)
  6 by 8 by 10 MPI processor grid
  reading bonds ...
  146984 bonds
Finding 1-2 1-3 1-4 neighbors ...
  special bond factors lj:    0        0        0       
  special bond factors coul:  0        0        0       
     4 = max # of 1-2 neighbors
     4 = max # of 1-3 neighbors
     8 = max # of 1-4 neighbors
    12 = max # of special neighbors
  special bonds CPU = 0.156 seconds
  read_data CPU = 4.684 seconds
========================================
Flow simulation: walled_slab_support_5beads_tall_3_1.5_1.4_20000000
Interaction: epsSS=1.5, epsSP=1.4
Production steps: 50000
Piston force per bead: -0.1
========================================
129793 atoms in group polymer
389338 atoms in group solvent
69948 atoms in group support
69948 atoms in group piston
963464 atoms in group walls
519131 atoms in group mobile
659027 atoms in group gel_system
Finding 1-2 1-3 1-4 neighbors ...
  special bond factors lj:    0        1        1       
  special bond factors coul:  0        1        1       
     4 = max # of 1-2 neighbors
    12 = max # of special neighbors
  special bonds CPU = 0.062 seconds
  1 rigid bodies with 69948 atoms
  1 rigid bodies with 69948 atoms
  1 rigid bodies with 963464 atoms
========================================
Phase 1: Soft push to resolve solvent-piston overlaps
========================================
Generated 0 of 15 mixed pair_coeff terms from geometric mixing rule
Hybrid pair style last /omp style soft
Last active /omp style is bond_style fene/omp
WARNING: More than one fix rigid (src/RIGID/fix_rigid.cpp:712)
WARNING: More than one fix rigid (src/RIGID/fix_rigid.cpp:712)
WARNING: More than one fix rigid (src/RIGID/fix_rigid.cpp:712)
Neighbor list info ...
  update: every = 1 steps, delay = 0 steps, check = yes
  max neighbors/atom: 2000, page size: 100000
  master list distance cutoff = 2.8
  ghost atom cutoff = 5
  binsize = 1.4, bins = 57 57 83
  2 neighbor lists, perpetual/occasional/extra = 2 0 0
  (1) pair lj/cut, perpetual
      attributes: half, newton on, omp, cut 2.8
      pair build: half/bin/newton/omp
      stencil: half/bin/3d
      bin: standard
  (2) pair soft, perpetual, skip from (1)
      attributes: half, newton on, omp
      pair build: skip/omp
      stencil: none
      bin: none
Setting up Verlet run ...
  Unit style    : lj
  Current step  : 0
  Time step     : 0.005
Per MPI rank memory allocation (min/avg/max) = 17.94 | 28.43 | 52.16 Mbytes
   Step          Temp          PotEng         KinEng         TotEng         Press          Volume           Lx             Ly             Lz      
         0   0             -0.43794805     0             -0.43794805     0.085610388    724288.47      79.375552      79.375552      114.9577     
      1000   1.1841937     -0.57352505     0.56834605    -0.0051790035   2.7535041      724288.47      79.375552      79.375552      114.9577     
Loop time of 43.8153 on 480 procs for 1000 steps with 1622491 atoms

Performance: 9859.560 tau/day, 22.823 timesteps/s, 37.030 Matom-step/s
99.3% CPU use with 480 MPI tasks x 1 OpenMP threads

MPI task timing breakdown:
Section |  min time  |  avg time  |  max time  |%varavg| %total
---------------------------------------------------------------
Pair    | 1.0055     | 1.4201     | 2.0834     |  13.1 |  3.24
Bond    | 0.0013219  | 0.019928   | 0.040033   |   5.9 |  0.05
Neigh   | 34.414     | 35.784     | 36.883     |  11.3 | 81.67
Comm    | 1.3214     | 3.8046     | 6.2033     |  61.8 |  8.68
Output  | 0.0043939  | 0.068253   | 0.10426    |  14.4 |  0.16
Modify  | 0.90682    | 2.3818     | 3.6581     |  39.5 |  5.44
Other   |            | 0.3371     |            |       |  0.77

Nlocal:        3380.19 ave        7972 max        1314 min
Histogram: 192 11 37 3 93 76 32 27 5 4
Nghost:          19747 ave       42577 max        7180 min
Histogram: 192 0 48 0 0 117 43 56 16 8
Neighs:        88180.3 ave      169213 max       38370 min
Histogram: 9 102 136 46 45 49 35 27 25 6

Total # of neighbors = 42326555
Ave neighs/atom = 26.08739
Ave special neighs/atom = 0.18118313
Neighbor list builds = 487
Dangerous builds = 0
Generated 0 of 15 mixed pair_coeff terms from geometric mixing rule
Hybrid pair style last /omp style soft
Last active /omp style is bond_style fene/omp
WARNING: More than one fix rigid (src/RIGID/fix_rigid.cpp:712)
WARNING: More than one fix rigid (src/RIGID/fix_rigid.cpp:712)
WARNING: More than one fix rigid (src/RIGID/fix_rigid.cpp:712)
Setting up cg style minimization ...
  Unit style    : lj
  Current step  : 1000
Per MPI rank memory allocation (min/avg/max) = 20.46 | 32.21 | 58.79 Mbytes
   Step          Temp          PotEng         KinEng         TotEng         Press          Volume           Lx             Ly             Lz      
      1000   1.1841937     -0.57352505     0.56834605    -0.0051790035   2.7535041      724288.47      79.375552      79.375552      114.9577     
      1368   1.1841937     -1.1500798      0.56834605    -0.58173376    -1.5344312      724288.47      79.375552      79.375552      114.9577     
Loop time of 7.73746 on 480 procs for 368 steps with 1622491 atoms

99.1% CPU use with 480 MPI tasks x 1 OpenMP threads

Minimization stats:
  Stopping criterion = energy tolerance
  Energy initial, next-to-last, final = 
    -0.573525050860601   -1.1499795105993  -1.15007980697577
  Force two-norm initial, final = 33198.917 729.06682
  Force max component initial, final = 1542.5909 359.28477
  Final line search alpha, max atom move = 0.00068777995 0.24710886
  Iterations, force evaluations = 368 373

MPI task timing breakdown:
Section |  min time  |  avg time  |  max time  |%varavg| %total
---------------------------------------------------------------
Pair    | 0.12811    | 0.43728    | 0.77978    |  16.9 |  5.65
Bond    | 0.00032126 | 0.0058336  | 0.010013   |   3.7 |  0.08
Neigh   | 5.2919     | 5.5224     | 5.7054     |   4.9 | 71.37
Comm    | 0.3842     | 1.0971     | 1.8022     |  34.9 | 14.18
Output  | 0          | 0          | 0          |   0.0 |  0.00
Modify  | 0.0044813  | 0.033201   | 0.11239    |  15.9 |  0.43
Other   |            | 0.6416     |            |       |  8.29

Nlocal:        3380.19 ave        7955 max        1381 min
Histogram: 192 24 24 9 87 78 31 27 5 3
Nghost:        19743.8 ave       42322 max        7405 min
Histogram: 192 0 48 0 0 112 48 56 16 8
Neighs:        68664.9 ave      169905 max       14407 min
Histogram: 23 49 75 226 50 24 5 6 6 16

Total # of neighbors = 32959159
Ave neighs/atom = 20.313924
Ave special neighs/atom = 0.18118313
Neighbor list builds = 81
Dangerous builds = 4
Soft push complete - overlaps resolved
========================================
Phase 2: Switching to full LJ interactions
========================================
Generated 0 of 15 mixed pair_coeff terms from geometric mixing rule
Last active /omp style is bond_style fene/omp
WARNING: More than one fix rigid (src/RIGID/fix_rigid.cpp:712)
WARNING: More than one fix rigid (src/RIGID/fix_rigid.cpp:712)
WARNING: More than one fix rigid (src/RIGID/fix_rigid.cpp:712)
Neighbor list info ...
  update: every = 1 steps, delay = 0 steps, check = yes
  max neighbors/atom: 2000, page size: 100000
  master list distance cutoff = 2.8
  ghost atom cutoff = 5
  binsize = 1.4, bins = 57 57 83
  1 neighbor lists, perpetual/occasional/extra = 1 0 0
  (1) pair lj/cut/omp, perpetual
      attributes: half, newton on, omp
      pair build: half/bin/newton/omp
      stencil: half/bin/3d
      bin: standard
Setting up cg style minimization ...
  Unit style    : lj
  Current step  : 1368
Per MPI rank memory allocation (min/avg/max) = 19.83 | 31.24 | 56.99 Mbytes
   Step          Temp          PotEng         KinEng         TotEng         Press          Volume           Lx             Ly             Lz      
      1368   1.1841937     -1.1521912      0.56834605    -0.5838452     -1.5326243      724288.47      79.375552      79.375552      114.9577     
      1369   1.1841937     -1.1522342      0.56834605    -0.58388818    -1.535449       724288.47      79.375552      79.375552      114.9577     
Loop time of 0.126755 on 480 procs for 1 steps with 1622491 atoms

99.3% CPU use with 480 MPI tasks x 1 OpenMP threads

Minimization stats:
  Stopping criterion = energy tolerance
  Energy initial, next-to-last, final = 
     -1.15219124372123  -1.15219124372123  -1.15223423088914
  Force two-norm initial, final = 1393.3655 515.24576
  Force max component initial, final = 359.28477 48.123393
  Final line search alpha, max atom move = 3.4791344e-05 0.0016742775
  Iterations, force evaluations = 1 5

MPI task timing breakdown:
Section |  min time  |  avg time  |  max time  |%varavg| %total
---------------------------------------------------------------
Pair    | 0.0011605  | 0.0059391  | 0.01175    |   3.1 |  4.69
Bond    | 5.099e-06  | 9.5039e-05 | 0.00034184 |   0.0 |  0.07
Neigh   | 0          | 0          | 0          |   0.0 |  0.00
Comm    | 0.0050291  | 0.01368    | 0.02275    |   4.2 | 10.79
Output  | 0          | 0          | 0          |   0.0 |  0.00
Modify  | 4.5425e-05 | 0.00028429 | 0.0010572  |   0.0 |  0.22
Other   |            | 0.1068     |            |       | 84.22

Nlocal:        3380.19 ave        7954 max        1385 min
Histogram: 192 24 24 9 87 78 31 27 5 3
Nghost:          19744 ave       42323 max        7407 min
Histogram: 192 0 48 0 0 112 48 56 16 8
Neighs:        45417.6 ave       71740 max        5713 min
Histogram: 22 27 40 66 43 52 14 8 100 108

Total # of neighbors = 21800434
Ave neighs/atom = 13.436397
Ave special neighs/atom = 0.18118313
Neighbor list builds = 0
Dangerous builds = 0
Generated 0 of 15 mixed pair_coeff terms from geometric mixing rule
Last active /omp style is bond_style fene/omp
WARNING: More than one fix rigid (src/RIGID/fix_rigid.cpp:712)
WARNING: More than one fix rigid (src/RIGID/fix_rigid.cpp:712)
WARNING: More than one fix rigid (src/RIGID/fix_rigid.cpp:712)
Setting up Verlet run ...
  Unit style    : lj
  Current step  : 1369
  Time step     : 0.005
Per MPI rank memory allocation (min/avg/max) = 18.7 | 29.08 | 52.5 Mbytes
   Step          Temp          PotEng         KinEng         TotEng         Press          Volume           Lx             Ly             Lz      
      1369   1.1841937     -1.1522342      0.56834605    -0.58388818    -1.0114518      724288.47      79.375552      79.375552      114.9577     
WARNING: Lost atoms: original 1622491 current 1622482
For more information see https://docs.lammps.org/err0008 (src/thermo.cpp:532)
      5000   5.4503405e-05 -1.3570226      2.61587e-05   -1.3569964     -1.6436279      724288.47      79.375552      79.375552      114.9577     
      6369   5.2377896e-05 -1.3684897      2.513857e-05  -1.3684646     -1.5802916      724288.47      79.375552      79.375552      114.9577     
Loop time of 79.2551 on 480 procs for 5000 steps with 1622482 atoms

Performance: 27253.775 tau/day, 63.087 timesteps/s, 102.358 Matom-step/s
99.2% CPU use with 480 MPI tasks x 1 OpenMP threads

MPI task timing breakdown:
Section |  min time  |  avg time  |  max time  |%varavg| %total
---------------------------------------------------------------
Pair    | 0.37136    | 2.8251     | 3.9983     |  50.1 |  3.56
Bond    | 0.003524   | 0.028702   | 0.05705    |   6.8 |  0.04
Neigh   | 45.558     | 47.634     | 49.261     |  14.8 | 60.10
Comm    | 5.1552     | 14.026     | 22.085     | 123.5 | 17.70
Output  | 0.020758   | 0.18686    | 0.35932    |  25.5 |  0.24
Modify  | 9.1873     | 13.46      | 19.691     |  85.9 | 16.98
Other   |            | 1.094      |            |       |  1.38

Nlocal:        3380.17 ave        7891 max        1403 min
Histogram: 192 24 24 0 96 73 31 28 9 3
Nghost:          19730 ave       42153 max        7614 min
Histogram: 192 0 48 0 0 96 64 56 16 8
Neighs:          46676 ave       65010 max        3655 min
Histogram: 6 13 14 21 49 71 47 43 38 178

Total # of neighbors = 22404499
Ave neighs/atom = 13.808781
Ave special neighs/atom = 0.18118414
Neighbor list builds = 716
Dangerous builds = 145
========================================
Phase 3: Production flow with piston forcing
========================================
  1 rigid bodies with 69948 atoms
Generated 0 of 15 mixed pair_coeff terms from geometric mixing rule
Last active /omp style is bond_style fene/omp
WARNING: More than one fix rigid (src/RIGID/fix_rigid.cpp:712)
WARNING: More than one fix rigid (src/RIGID/fix_rigid.cpp:712)
WARNING: More than one fix rigid (src/RIGID/fix_rigid.cpp:712)
Setting up Verlet run ...
  Unit style    : lj
  Current step  : 6369
  Time step     : 0.005
Per MPI rank memory allocation (min/avg/max) = 17.32 | 27.47 | 50.36 Mbytes
   Step          Temp          PotEng         KinEng         TotEng         Press          Volume           Lx             Ly             Lz      
      6369   5.2378804e-05 -1.3684897      2.513857e-05  -1.3684646     -1.5257875      724288.47      79.375552      79.375552      114.9577     
Loop time of 1.21491e-05 on 480 procs for 0 steps with 1622482 atoms

113.7% CPU use with 480 MPI tasks x 1 OpenMP threads

MPI task timing breakdown:
Section |  min time  |  avg time  |  max time  |%varavg| %total
---------------------------------------------------------------
Pair    | 0          | 0          | 0          |   0.0 |  0.00
Bond    | 0          | 0          | 0          |   0.0 |  0.00
Neigh   | 0          | 0          | 0          |   0.0 |  0.00
Comm    | 0          | 0          | 0          |   0.0 |  0.00
Output  | 0          | 0          | 0          |   0.0 |  0.00
Modify  | 0          | 0          | 0          |   0.0 |  0.00
Other   |            | 1.215e-05  |            |       |100.00

Nlocal:        3380.17 ave        7890 max        1404 min
Histogram: 192 24 24 0 96 73 31 28 9 3
Nghost:          19730 ave       42152 max        7615 min
Histogram: 192 0 48 0 0 96 64 56 16 8
Neighs:        46679.3 ave       65026 max        3653 min
Histogram: 6 13 14 21 49 71 47 43 38 178

Total # of neighbors = 22406061
Ave neighs/atom = 13.809744
Ave special neighs/atom = 0.18118414
Neighbor list builds = 0
Dangerous builds = 0
Rg_xx = 384.744539955451
Rg_yy = 380.51472943702
Rg_zz = 677.625819372299
hw_x = 31.7761478259887
hw_y = 31.6009945402754
hw_z = 42.1706201087993
Generated 0 of 15 mixed pair_coeff terms from geometric mixing rule
Last active /omp style is bond_style fene/omp
WARNING: More than one fix rigid (src/RIGID/fix_rigid.cpp:712)
WARNING: More than one fix rigid (src/RIGID/fix_rigid.cpp:712)
WARNING: More than one fix rigid (src/RIGID/fix_rigid.cpp:712)
Setting up Verlet run ...
  Unit style    : lj
  Current step  : 6369
  Time step     : 0.005
Per MPI rank memory allocation (min/avg/max) = 20.33 | 33.23 | 62.37 Mbytes
   Step          Temp          PotEng         KinEng         TotEng         Press          Volume           Lx             Ly             Lz      
      6369   5.2378804e-05 -1.3684897      2.513857e-05  -1.3684646     -1.5257875      724288.47      79.375552      79.375552      114.9577     
     10000   0.50165275    -1.3854426      0.24076214    -1.1446804      0.19849958     724288.47      79.375552      79.375552      114.9577     
     15000   0.99858554    -1.0450162      0.47925899    -0.56575718     0.74638801     724288.47      79.375552      79.375552      114.9577     
     20000   0.99986273    -0.96080029     0.47987196    -0.48092833     0.68136929     724288.47      79.375552      79.375552      114.9577     
     25000   0.9995971     -0.98053764     0.47974447    -0.50079317     0.45944919     724288.47      79.375552      79.375552      114.9577     
     30000   1.0028527     -0.98442545     0.48130697    -0.50311847     0.58930375     724288.47      79.375552      79.375552      114.9577     
     35000   1.0017962     -0.98858712     0.4807999     -0.50778722     0.19243222     724288.47      79.375552      79.375552      114.9577     
     40000   1.0010674     -0.99291306     0.48045012    -0.51246294     0.20753557     724288.47      79.375552      79.375552      114.9577     
     45000   1.0004702     -0.99431772     0.48016349    -0.51415423     0.42145116     724288.47      79.375552      79.375552      114.9577     
     50000   1.0014263     -0.99538441     0.48062238    -0.51476203     0.25691292     724288.47      79.375552      79.375552      114.9577     
     55000   0.99951322    -0.99732414     0.47970421    -0.51761993     0.36198469     724288.47      79.375552      79.375552      114.9577     
     56369   0.99903081    -0.99653779     0.47947269    -0.5170651      0.44466243     724288.47      79.375552      79.375552      114.9577     
Loop time of 1088.55 on 480 procs for 50000 steps with 1622482 atoms

Performance: 19842.927 tau/day, 45.933 timesteps/s, 74.525 Matom-step/s
99.2% CPU use with 480 MPI tasks x 1 OpenMP threads

MPI task timing breakdown:
Section |  min time  |  avg time  |  max time  |%varavg| %total
---------------------------------------------------------------
Pair    | 10.201     | 30.108     | 38.323     | 115.5 |  2.77
Bond    | 0.062653   | 0.41451    | 0.8458     |  23.4 |  0.04
Neigh   | 746.17     | 780.91     | 807.38     |  61.7 | 71.74
Comm    | 55.912     | 153.03     | 243.19     | 410.3 | 14.06
Output  | 0.037722   | 0.15034    | 0.25028    |  16.5 |  0.01
Modify  | 66.538     | 113.71     | 177.9      | 299.9 | 10.45
Other   |            | 10.23      |            |       |  0.94

Nlocal:        3380.17 ave        8171 max        1311 min
Histogram: 192 24 24 0 96 78 26 34 3 3
Nghost:        19730.2 ave       43033 max        7622 min
Histogram: 171 45 24 0 0 113 54 53 16 4
Neighs:        47440.3 ave       60356 max       16792 min
Histogram: 2 10 13 22 50 81 36 56 47 163

Total # of neighbors = 22771324
Ave neighs/atom = 14.03487
Ave special neighs/atom = 0.18118414
Neighbor list builds = 11905
Dangerous builds = 0
========================================
Flow simulation complete
========================================
System init for write_data ...
Generated 0 of 15 mixed pair_coeff terms from geometric mixing rule
Last active /omp style is bond_style fene/omp
WARNING: More than one fix rigid (src/RIGID/fix_rigid.cpp:712)
WARNING: More than one fix rigid (src/RIGID/fix_rigid.cpp:712)
WARNING: More than one fix rigid (src/RIGID/fix_rigid.cpp:712)
WARNING: Not all mixed pair coeffs generated from mixing. Use write_data with 'pair ij' option to store all pair coeffs. (src/write_data.cpp:364)
Total wall time: 0:20:28
======================================
Running post-processing...
======================================
Generating convergence plot...
Plot saved to ./output_plots/convergence_plots/walled_slab_support_5beads_tall_3_1.5_1.4_20000000_1.5_1.4_50000_convergence.png
Generating stress profiles...
Warning: Could not find data file (tried walled_slab_support_5beads_tall_3.data and walled_slab_support_5beads_tall_3_1.5_1.4_20000000_1.5_1.4_50000.data), using default box dimensions
Stress profile saved to ./output_plots/walled_slab_support_5beads_tall_3_1.5_1.4_20000000_1.5_1.4_50000_stress.png
No volume data found for walled_slab_support_5beads_tall_3_1.5_1.4_20000000_1.5_1.4_50000, skipping volume fraction plots
Generating piston plots...
Read 5 position points, 5 velocity points
Piston plot saved to ./output_plots/walled_slab_support_5beads_tall_3_1.5_1.4_20000000_1.5_1.4_50000_piston.png

=== Piston Summary ===
Initial position: 100.6772
Final position:   100.3403
Total displacement: -0.3369
Generating computational efficiency plot...
Found data file: ./data_files/walled_slab_support_5beads_tall_3_1.5_1.4_20000000.data
Mobile atoms: 1482595
Tracking info written to /jet/home/dpollard/Documents/lammps_work/tracking.txt
Saved /jet/home/dpollard/Documents/lammps_work/time_vs_atoms.png
Saved /jet/home/dpollard/Documents/lammps_work/time_vs_timesteps.png
======================================
Done! Results are in: /jet/home/dpollard/Documents/lammps_runs/slab_with_flow_walled_slab_support_5beads_tall_3_1.5_1.4_20000000_1.5_1.4_20260120_205735
======================================
