======================================
Working directory: /jet/home/dpollard/Documents/lammps_runs/slab_with_flow_walled_slab_support_5beads_tall_3_1.5_1.4_20000000_1.5_1.4_20260120_182232
Trajectory directory (scratch): /ocean/projects/chm250028p/dpollard/lammps_trajectories/slab_with_flow_walled_slab_support_5beads_tall_3_1.5_1.4_20000000_1.5_1.4_20260120_182232
======================================
Running LAMMPS in slab_with_flow with:
  dataname=walled_slab_support_5beads_tall_3_1.5_1.4_20000000
  epsSS=1.5, epsSP=1.4
  nsteps=80000, oldsteps=0, totsteps=80000
SLURM tasks per node: 120
SLURM CPUs per task: 1
SLURM_GPUS_ON_NODE: 
GPUs allocated: 
Running CPU-only with 480 tasks
LAMMPS (22 Jul 2025)
  using 1 OpenMP thread(s) per MPI task
using multi-threaded neighbor list subroutines
Reading data file ...
  orthogonal box = (-4.8877761 -4.8877761 -7.0788481) to (74.487776 74.487776 107.87885)
  6 by 8 by 10 MPI processor grid
  reading atoms ...
  1622491 atoms
  scanning bonds ...
  3 = max bonds/atom
  orthogonal box = (-4.8877761 -4.8877761 -7.0788481) to (74.487776 74.487776 107.87885)
  6 by 8 by 10 MPI processor grid
  reading bonds ...
  146984 bonds
Finding 1-2 1-3 1-4 neighbors ...
  special bond factors lj:    0        0        0       
  special bond factors coul:  0        0        0       
     4 = max # of 1-2 neighbors
     4 = max # of 1-3 neighbors
     8 = max # of 1-4 neighbors
    12 = max # of special neighbors
  special bonds CPU = 0.154 seconds
  read_data CPU = 7.190 seconds
========================================
Flow simulation: walled_slab_support_5beads_tall_3_1.5_1.4_20000000
Interaction: epsSS=1.5, epsSP=1.4
Production steps: 80000
Piston force per bead: -0.1
========================================
129793 atoms in group polymer
389338 atoms in group solvent
69948 atoms in group support
69948 atoms in group piston
963464 atoms in group walls
519131 atoms in group mobile
659027 atoms in group gel_system
Finding 1-2 1-3 1-4 neighbors ...
  special bond factors lj:    0        1        1       
  special bond factors coul:  0        1        1       
     4 = max # of 1-2 neighbors
    12 = max # of special neighbors
  special bonds CPU = 0.061 seconds
  1 rigid bodies with 69948 atoms
  1 rigid bodies with 69948 atoms
  1 rigid bodies with 963464 atoms
========================================
Phase 1: Soft push to resolve solvent-piston overlaps
========================================
Generated 0 of 15 mixed pair_coeff terms from geometric mixing rule
Hybrid pair style last /omp style soft
Last active /omp style is bond_style fene/omp
WARNING: More than one fix rigid (src/RIGID/fix_rigid.cpp:712)
WARNING: More than one fix rigid (src/RIGID/fix_rigid.cpp:712)
WARNING: More than one fix rigid (src/RIGID/fix_rigid.cpp:712)
Neighbor list info ...
  update: every = 1 steps, delay = 0 steps, check = yes
  max neighbors/atom: 2000, page size: 100000
  master list distance cutoff = 2.8
  ghost atom cutoff = 5
  binsize = 1.4, bins = 57 57 83
  2 neighbor lists, perpetual/occasional/extra = 2 0 0
  (1) pair lj/cut, perpetual
      attributes: half, newton on, omp, cut 2.8
      pair build: half/bin/newton/omp
      stencil: half/bin/3d
      bin: standard
  (2) pair soft, perpetual, skip from (1)
      attributes: half, newton on, omp
      pair build: skip/omp
      stencil: none
      bin: none
Setting up Verlet run ...
  Unit style    : lj
  Current step  : 0
  Time step     : 0.005
Per MPI rank memory allocation (min/avg/max) = 17.94 | 28.43 | 52.16 Mbytes
   Step          Temp          PotEng         KinEng         TotEng         Press          Volume           Lx             Ly             Lz      
         0   0             -0.43794805     0             -0.43794805     0.085610388    724288.47      79.375552      79.375552      114.9577     
      1000   1.1841937     -0.57352505     0.56834605    -0.0051790035   2.7535041      724288.47      79.375552      79.375552      114.9577     
Loop time of 44.0754 on 480 procs for 1000 steps with 1622491 atoms

Performance: 9801.381 tau/day, 22.688 timesteps/s, 36.812 Matom-step/s
99.2% CPU use with 480 MPI tasks x 1 OpenMP threads

MPI task timing breakdown:
Section |  min time  |  avg time  |  max time  |%varavg| %total
---------------------------------------------------------------
Pair    | 1.0414     | 1.4199     | 2.0912     |  12.9 |  3.22
Bond    | 0.0012865  | 0.020152   | 0.0407     |   5.9 |  0.05
Neigh   | 34.549     | 35.846     | 36.919     |  10.7 | 81.33
Comm    | 1.2706     | 3.785      | 6.0611     |  58.8 |  8.59
Output  | 0.0043686  | 0.045321   | 0.071667   |  10.9 |  0.10
Modify  | 1.5037     | 2.6184     | 3.9069     |  36.4 |  5.94
Other   |            | 0.341      |            |       |  0.77

Nlocal:        3380.19 ave        7972 max        1314 min
Histogram: 192 11 37 3 93 76 32 27 5 4
Nghost:          19747 ave       42577 max        7180 min
Histogram: 192 0 48 0 0 117 43 56 16 8
Neighs:        88180.3 ave      169213 max       38370 min
Histogram: 9 102 136 46 45 49 35 27 25 6

Total # of neighbors = 42326555
Ave neighs/atom = 26.08739
Ave special neighs/atom = 0.18118313
Neighbor list builds = 487
Dangerous builds = 0
Soft push complete - overlaps resolved
========================================
Phase 2: Switching to full LJ interactions
========================================
Generated 0 of 15 mixed pair_coeff terms from geometric mixing rule
Last active /omp style is bond_style fene/omp
WARNING: More than one fix rigid (src/RIGID/fix_rigid.cpp:712)
WARNING: More than one fix rigid (src/RIGID/fix_rigid.cpp:712)
WARNING: More than one fix rigid (src/RIGID/fix_rigid.cpp:712)
Neighbor list info ...
  update: every = 1 steps, delay = 0 steps, check = yes
  max neighbors/atom: 2000, page size: 100000
  master list distance cutoff = 2.8
  ghost atom cutoff = 5
  binsize = 1.4, bins = 57 57 83
  1 neighbor lists, perpetual/occasional/extra = 1 0 0
  (1) pair lj/cut/omp, perpetual
      attributes: half, newton on, omp
      pair build: half/bin/newton/omp
      stencil: half/bin/3d
      bin: standard
Setting up cg style minimization ...
  Unit style    : lj
  Current step  : 1000
Per MPI rank memory allocation (min/avg/max) = 19.82 | 31.23 | 56.99 Mbytes
   Step          Temp          PotEng         KinEng         TotEng         Press          Volume           Lx             Ly             Lz      
      1000   1.1841937     -0.70975813     0.56834605    -0.14141208     3.0303915      724288.47      79.375552      79.375552      114.9577     
      1247   1.1841937     -1.2867265      0.56834605    -0.71838041    -2.27492        724288.47      79.375552      79.375552      114.9577     
Loop time of 4.17309 on 480 procs for 247 steps with 1622491 atoms

99.0% CPU use with 480 MPI tasks x 1 OpenMP threads

Minimization stats:
  Stopping criterion = energy tolerance
  Energy initial, next-to-last, final = 
    -0.709758131737438  -1.28659985282587  -1.28672645365088
  Force two-norm initial, final = 40273.815 558.80163
  Force max component initial, final = 7964.0005 79.441462
  Final line search alpha, max atom move = 0.00048644043 0.038643539
  Iterations, force evaluations = 247 247

MPI task timing breakdown:
Section |  min time  |  avg time  |  max time  |%varavg| %total
---------------------------------------------------------------
Pair    | 0.045465   | 0.24432    | 0.54382    |  19.9 |  5.85
Bond    | 0.00020233 | 0.0038365  | 0.0078686  |   3.1 |  0.09
Neigh   | 2.6548     | 2.7651     | 2.8565     |   3.3 | 66.26
Comm    | 0.20783    | 0.69202    | 1.1394     |  28.3 | 16.58
Output  | 0          | 0          | 0          |   0.0 |  0.00
Modify  | 0.0026828  | 0.018368   | 0.060421   |  11.5 |  0.44
Other   |            | 0.4495     |            |       | 10.77

Nlocal:        3380.19 ave        7972 max        1337 min
Histogram: 192 12 36 4 92 76 32 28 5 3
Nghost:          19741 ave       42403 max        7288 min
Histogram: 192 0 48 0 0 109 51 56 16 8
Neighs:        45985.3 ave       72986 max        6851 min
Histogram: 23 23 38 57 61 36 23 46 118 55

Total # of neighbors = 22072962
Ave neighs/atom = 13.604366
Ave special neighs/atom = 0.18118313
Neighbor list builds = 41
Dangerous builds = 2
Generated 0 of 15 mixed pair_coeff terms from geometric mixing rule
Last active /omp style is bond_style fene/omp
WARNING: More than one fix rigid (src/RIGID/fix_rigid.cpp:712)
WARNING: More than one fix rigid (src/RIGID/fix_rigid.cpp:712)
WARNING: More than one fix rigid (src/RIGID/fix_rigid.cpp:712)
Setting up Verlet run ...
  Unit style    : lj
  Current step  : 1247
  Time step     : 0.005
Per MPI rank memory allocation (min/avg/max) = 18.7 | 29.08 | 52.49 Mbytes
   Step          Temp          PotEng         KinEng         TotEng         Press          Volume           Lx             Ly             Lz      
      1247   1.1841937     -1.2867265      0.56834605    -0.71838041    -0.75514677     724288.47      79.375552      79.375552      114.9577     
WARNING: FENE bond too long: 3143 597048 597033 7.3941354 (src/OPENMP/bond_fene_omp.cpp:116)
ERROR on proc 1: Bad FENE bond (src/OPENMP/bond_fene_omp.cpp:118)
WARNING: FENE bond too long: 3143 597035 597048 6.6615436 (src/OPENMP/bond_fene_omp.cpp:116)
ERROR on proc 12: Bad FENE bond (src/OPENMP/bond_fene_omp.cpp:118)
======================================
Running post-processing...
======================================
Generating convergence plot...
Plot saved to ./output_plots/convergence_plots/walled_slab_support_5beads_tall_3_1.5_1.4_20000000_1.5_1.4_80000_convergence.png
Generating stress profiles...
No stress data found for walled_slab_support_5beads_tall_3_1.5_1.4_20000000_1.5_1.4_80000, skipping stress plots
No volume data found for walled_slab_support_5beads_tall_3_1.5_1.4_20000000_1.5_1.4_80000, skipping volume fraction plots
Generating piston plots...
Error: Piston position file not found: ./output_files/piston_data/piston_position_walled_slab_support_5beads_tall_3_1.5_1.4_20000000_1.5_1.4_80000.dat
Generating computational efficiency plot...
Found data file: ./data_files/walled_slab_support_5beads_tall_3_1.5_1.4_20000000.data
Mobile atoms: 1482595
Tracking info written to /jet/home/dpollard/Documents/lammps_work/tracking.txt
Saved /jet/home/dpollard/Documents/lammps_work/time_vs_atoms.png
Saved /jet/home/dpollard/Documents/lammps_work/time_vs_timesteps.png
======================================
Done! Results are in: /jet/home/dpollard/Documents/lammps_runs/slab_with_flow_walled_slab_support_5beads_tall_3_1.5_1.4_20000000_1.5_1.4_20260120_182232
======================================
