======================================
Working directory: /jet/home/dpollard/Documents/lammps_runs/slab_with_flow_walled_slab_support_5beads_10x10x5_rho6_extra_padding43_1.5_1.4_10000000_1.5_1.4_20260109_134158
Trajectory directory (scratch): /ocean/projects/chm250028p/dpollard/lammps_trajectories/slab_with_flow_walled_slab_support_5beads_10x10x5_rho6_extra_padding43_1.5_1.4_10000000_1.5_1.4_20260109_134158
======================================
Running LAMMPS in slab_with_flow with:
  dataname=walled_slab_support_5beads_10x10x5_rho6_extra_padding43_1.5_1.4_10000000
  epsSS=1.5, epsSP=1.4
  nsteps=100000, oldsteps=0, totsteps=100000
SLURM tasks per node: 120
SLURM CPUs per task: 1
SLURM_GPUS_ON_NODE: 
GPUs allocated: 
Running CPU-only with 480 tasks
LAMMPS (22 Jul 2025)
  using 1 OpenMP thread(s) per MPI task
using multi-threaded neighbor list subroutines
Reading data file ...
  orthogonal box = (-6.8704069 -6.8704069 -4.3828458) to (93.870407 93.870407 59.882846)
  8 by 10 by 6 MPI processor grid
  reading atoms ...
  1323878 atoms
  scanning bonds ...
  3 = max bonds/atom
  orthogonal box = (-6.8704069 -6.8704069 -4.3828458) to (93.870407 93.870407 59.882846)
  8 by 10 by 6 MPI processor grid
  reading bonds ...
  143511 bonds
Finding 1-2 1-3 1-4 neighbors ...
  special bond factors lj:    0        0        0       
  special bond factors coul:  0        0        0       
     4 = max # of 1-2 neighbors
     4 = max # of 1-3 neighbors
     8 = max # of 1-4 neighbors
    12 = max # of special neighbors
  special bonds CPU = 0.130 seconds
  read_data CPU = 8.675 seconds
========================================
Flow simulation: walled_slab_support_5beads_10x10x5_rho6_extra_padding43_1.5_1.4_10000000
Interaction: epsSS=1.5, epsSP=1.4
Production steps: 100000
Piston force per bead: -0.1
========================================
126752 atoms in group polymer
310822 atoms in group solvent
109654 atoms in group support
109654 atoms in group piston
666996 atoms in group walls
437574 atoms in group mobile
656882 atoms in group gel_system
Finding 1-2 1-3 1-4 neighbors ...
  special bond factors lj:    0        1        1       
  special bond factors coul:  0        1        1       
     4 = max # of 1-2 neighbors
    12 = max # of special neighbors
  special bonds CPU = 0.043 seconds
  1 rigid bodies with 109654 atoms
  1 rigid bodies with 109654 atoms
  1 rigid bodies with 666996 atoms
========================================
Phase 1: Soft push to resolve solvent-piston overlaps
========================================
Generated 0 of 15 mixed pair_coeff terms from geometric mixing rule
Hybrid pair style last /omp style soft
Last active /omp style is bond_style fene/omp
WARNING: More than one fix rigid (src/RIGID/fix_rigid.cpp:712)
WARNING: More than one fix rigid (src/RIGID/fix_rigid.cpp:712)
WARNING: More than one fix rigid (src/RIGID/fix_rigid.cpp:712)
Neighbor list info ...
  update: every = 1 steps, delay = 0 steps, check = yes
  max neighbors/atom: 2000, page size: 100000
  master list distance cutoff = 2.8
  ghost atom cutoff = 5
  binsize = 1.4, bins = 72 72 46
  2 neighbor lists, perpetual/occasional/extra = 2 0 0
  (1) pair lj/cut, perpetual
      attributes: half, newton on, omp, cut 2.8
      pair build: half/bin/newton/omp
      stencil: half/bin/3d
      bin: standard
  (2) pair soft, perpetual, skip from (1)
      attributes: half, newton on, omp
      pair build: skip/omp
      stencil: none
      bin: none
Setting up Verlet run ...
  Unit style    : lj
  Current step  : 0
  Time step     : 0.005
Per MPI rank memory allocation (min/avg/max) = 16.79 | 23.64 | 39.16 Mbytes
   Step          Temp          PotEng         KinEng         TotEng         Press          Volume           Lx             Ly             Lz      
         0   0             -0.032144261    0             -0.032144261    0.021388102    652213.97      100.74081      100.74081      64.265692    
      1000   1.1675453     -0.20361534     0.57885997     0.37524463     1.9811743      652213.97      100.74081      100.74081      64.265692    
Loop time of 29.8847 on 480 procs for 1000 steps with 1323878 atoms

Performance: 14455.534 tau/day, 33.462 timesteps/s, 44.299 Matom-step/s
99.3% CPU use with 480 MPI tasks x 1 OpenMP threads

MPI task timing breakdown:
Section |  min time  |  avg time  |  max time  |%varavg| %total
---------------------------------------------------------------
Pair    | 0.52666    | 1.1274     | 1.8135     |  19.5 |  3.77
Bond    | 0.0036025  | 0.017665   | 0.039089   |   5.4 |  0.06
Neigh   | 24.067     | 24.546     | 25.045     |   4.8 | 82.14
Comm    | 0.95576    | 1.9872     | 3.0381     |  31.6 |  6.65
Output  | 0.0024289  | 0.0024425  | 0.0024788  |   0.0 |  0.01
Modify  | 1.5715     | 2.0137     | 2.6169     |  14.0 |  6.74
Other   |            | 0.1905     |            |       |  0.64

Nlocal:        2758.08 ave        5673 max        1167 min
Histogram: 192 0 57 39 0 79 19 30 40 24
Nghost:        14310.8 ave       27895 max        7084 min
Histogram: 144 16 96 62 10 24 96 0 0 32
Neighs:        74886.6 ave      139897 max       23201 min
Histogram: 5 22 134 98 47 72 35 22 22 23

Total # of neighbors = 35945546
Ave neighs/atom = 27.151706
Ave special neighs/atom = 0.21680397
Neighbor list builds = 487
Dangerous builds = 0
Soft push complete - overlaps resolved
========================================
Phase 2: Switching to full LJ interactions
========================================
Generated 0 of 15 mixed pair_coeff terms from geometric mixing rule
Last active /omp style is bond_style fene/omp
WARNING: More than one fix rigid (src/RIGID/fix_rigid.cpp:712)
WARNING: More than one fix rigid (src/RIGID/fix_rigid.cpp:712)
WARNING: More than one fix rigid (src/RIGID/fix_rigid.cpp:712)
Neighbor list info ...
  update: every = 1 steps, delay = 0 steps, check = yes
  max neighbors/atom: 2000, page size: 100000
  master list distance cutoff = 2.8
  ghost atom cutoff = 5
  binsize = 1.4, bins = 72 72 46
  1 neighbor lists, perpetual/occasional/extra = 1 0 0
  (1) pair lj/cut/omp, perpetual
      attributes: half, newton on, omp
      pair build: half/bin/newton/omp
      stencil: half/bin/3d
      bin: standard
Setting up cg style minimization ...
  Unit style    : lj
  Current step  : 1000
Per MPI rank memory allocation (min/avg/max) = 17.41 | 24.62 | 41.51 Mbytes
   Step          Temp          PotEng         KinEng         TotEng         Press          Volume           Lx             Ly             Lz      
      1000   1.1675453     -0.32414414     0.57885997     0.25471583     2.18425        652213.97      100.74081      100.74081      64.265692    
      1511   1.1675453     -0.99550819     0.57885997    -0.41664822    -2.0962536      652213.97      100.74081      100.74081      64.265692    
Loop time of 7.96566 on 480 procs for 511 steps with 1323878 atoms

99.3% CPU use with 480 MPI tasks x 1 OpenMP threads

Minimization stats:
  Stopping criterion = energy tolerance
  Energy initial, next-to-last, final = 
     -0.32414414096302 -0.995409609326957 -0.995508191285207
  Force two-norm initial, final = 34025.078 722.18728
  Force max component initial, final = 7751.5775 329.49124
  Final line search alpha, max atom move = 0.00075012416 0.24715934
  Iterations, force evaluations = 511 561

MPI task timing breakdown:
Section |  min time  |  avg time  |  max time  |%varavg| %total
---------------------------------------------------------------
Pair    | 0.044343   | 0.46216    | 0.80046    |  33.0 |  5.80
Bond    | 0.00083334 | 0.0079172  | 0.020432   |   4.5 |  0.10
Neigh   | 6.0065     | 6.1217     | 6.2312     |   2.3 | 76.85
Comm    | 0.46536    | 0.97321    | 1.5461     |  29.3 | 12.22
Output  | 0          | 0          | 0          |   0.0 |  0.00
Modify  | 0.0054376  | 0.016339   | 0.036682   |   6.5 |  0.21
Other   |            | 0.3844     |            |       |  4.83

Nlocal:        2758.08 ave        5639 max        1274 min
Histogram: 192 0 63 33 0 80 37 11 40 24
Nghost:        14327.6 ave       27800 max        7479 min
Histogram: 144 16 96 72 0 24 96 0 0 32
Neighs:        38809.9 ave       64095 max        2274 min
Histogram: 30 47 61 49 5 25 16 23 142 82

Total # of neighbors = 18628764
Ave neighs/atom = 14.07136
Ave special neighs/atom = 0.21680397
Neighbor list builds = 134
Dangerous builds = 0
Generated 0 of 15 mixed pair_coeff terms from geometric mixing rule
Last active /omp style is bond_style fene/omp
WARNING: More than one fix rigid (src/RIGID/fix_rigid.cpp:712)
WARNING: More than one fix rigid (src/RIGID/fix_rigid.cpp:712)
WARNING: More than one fix rigid (src/RIGID/fix_rigid.cpp:712)
Setting up Verlet run ...
  Unit style    : lj
  Current step  : 1511
  Time step     : 0.005
Per MPI rank memory allocation (min/avg/max) = 16.29 | 22.84 | 38.14 Mbytes
   Step          Temp          PotEng         KinEng         TotEng         Press          Volume           Lx             Ly             Lz      
      1511   1.1675453     -0.99550819     0.57885997    -0.41664822    -0.61523958     652213.97      100.74081      100.74081      64.265692    
WARNING: Lost atoms: original 1323878 current 1323874
For more information see https://docs.lammps.org/err0008 (src/thermo.cpp:532)
      5000   3.2737039e-09 -0.97183684     1.6230821e-09 -0.97183684    -2.1573377      652213.97      100.74081      100.74081      64.265692    
      6511   1.4862324e-08 -0.98900302     7.3686479e-09 -0.98900301    -2.162014       652213.97      100.74081      100.74081      64.265692    
Loop time of 62.7242 on 480 procs for 5000 steps with 1323874 atoms

Performance: 34436.463 tau/day, 79.714 timesteps/s, 105.531 Matom-step/s
99.4% CPU use with 480 MPI tasks x 1 OpenMP threads

MPI task timing breakdown:
Section |  min time  |  avg time  |  max time  |%varavg| %total
---------------------------------------------------------------
Pair    | 0.14632    | 2.2643     | 3.3925     |  63.7 |  3.61
Bond    | 0.0046819  | 0.024369   | 0.043158   |   6.8 |  0.04
Neigh   | 47.963     | 48.945     | 49.864     |   6.9 | 78.03
Comm    | 3.7516     | 7.5919     | 11.415     |  69.3 | 12.10
Output  | 0.00031291 | 0.00033898 | 0.00045213 |   0.0 |  0.00
Modify  | 1.8331     | 3.3582     | 5.6102     |  49.3 |  5.35
Other   |            | 0.5403     |            |       |  0.86

Nlocal:        2758.07 ave        5716 max        1254 min
Histogram: 192 0 71 25 0 80 32 16 40 24
Nghost:        14311.3 ave       28205 max        7496 min
Histogram: 144 16 96 72 0 24 96 0 0 32
Neighs:        38091.2 ave       55802 max        1117 min
Histogram: 16 17 25 45 74 19 24 20 45 195

Total # of neighbors = 18283753
Ave neighs/atom = 13.810795
Ave special neighs/atom = 0.21680462
Neighbor list builds = 1052
Dangerous builds = 376
========================================
Phase 3: Production flow with piston forcing
========================================
Generated 0 of 15 mixed pair_coeff terms from geometric mixing rule
Last active /omp style is bond_style fene/omp
WARNING: More than one fix rigid (src/RIGID/fix_rigid.cpp:712)
WARNING: More than one fix rigid (src/RIGID/fix_rigid.cpp:712)
WARNING: More than one fix rigid (src/RIGID/fix_rigid.cpp:712)
Setting up Verlet run ...
  Unit style    : lj
  Current step  : 0
  Time step     : 0.005
Per MPI rank memory allocation (min/avg/max) = 19.3 | 27.74 | 47.15 Mbytes
   Step          Temp          PotEng         KinEng         TotEng         Press          Volume           Lx             Ly             Lz      
         0   1.486246e-08  -0.98900302     7.3686479e-09 -0.98900301    -2.1603254      652213.97      100.74081      100.74081      64.265692    
      5000   0.94543049    -0.66144428     0.46873427    -0.19271        0.76854639     652213.97      100.74081      100.74081      64.265692    
     10000   0.99621636    -0.60095083     0.49391336    -0.10703747     0.49887751     652213.97      100.74081      100.74081      64.265692    
     15000   1.0005285     -0.61111899     0.49605126    -0.11506773     0.52066503     652213.97      100.74081      100.74081      64.265692    
     20000   1.0026157     -0.61653695     0.49708608    -0.11945087     0.55168715     652213.97      100.74081      100.74081      64.265692    
     25000   1.0004857     -0.61974167     0.49603003    -0.12371163     0.43225569     652213.97      100.74081      100.74081      64.265692    
     30000   0.99991921    -0.62256319     0.4957492     -0.126814       0.47368734     652213.97      100.74081      100.74081      64.265692    
     35000   0.99920411    -0.62463276     0.49539466    -0.1292381      0.52653509     652213.97      100.74081      100.74081      64.265692    
     40000   1.00343       -0.62853977     0.49748982    -0.13104996     0.40521142     652213.97      100.74081      100.74081      64.265692    
     45000   1.000203      -0.6287409      0.4958899     -0.13285099     0.38777142     652213.97      100.74081      100.74081      64.265692    
     50000   1.0018432     -0.62875635     0.49670308    -0.13205327     0.60554325     652213.97      100.74081      100.74081      64.265692    
     55000   0.99902074    -0.63025506     0.49530374    -0.13495132     0.15865559     652213.97      100.74081      100.74081      64.265692    
     60000   0.99712241    -0.63039912     0.49436258    -0.13603655     0.55997577     652213.97      100.74081      100.74081      64.265692    
     65000   0.99801087    -0.63136176     0.49480306    -0.13655869     0.31661277     652213.97      100.74081      100.74081      64.265692    
     70000   0.99682073    -0.632359       0.49421301    -0.138146       0.5045955      652213.97      100.74081      100.74081      64.265692    
     75000   0.99906227    -0.63270847     0.49532433    -0.13738414     0.46054205     652213.97      100.74081      100.74081      64.265692    
     80000   1.0000825     -0.63443142     0.49583018    -0.13860124     0.39058378     652213.97      100.74081      100.74081      64.265692    
     85000   1.0011622     -0.63170053     0.49636547    -0.13533506     0.33108335     652213.97      100.74081      100.74081      64.265692    
     90000   1.0001613     -0.630502       0.49586922    -0.13463278     0.22714482     652213.97      100.74081      100.74081      64.265692    
     95000   0.99964241    -0.63330296     0.49561196    -0.137691       0.68354358     652213.97      100.74081      100.74081      64.265692    
    100000   0.9986334     -0.63367499     0.49511171    -0.13856328     0.33576462     652213.97      100.74081      100.74081      64.265692    
Loop time of 1024.93 on 480 procs for 100000 steps with 1323874 atoms

Performance: 42149.345 tau/day, 97.568 timesteps/s, 129.168 Matom-step/s
99.3% CPU use with 480 MPI tasks x 1 OpenMP threads

MPI task timing breakdown:
Section |  min time  |  avg time  |  max time  |%varavg| %total
---------------------------------------------------------------
Pair    | 11.144     | 48.188     | 67.361     | 224.2 |  4.70
Bond    | 0.14762    | 0.63284    | 1.0401     |  29.3 |  0.06
Neigh   | 722.08     | 735.48     | 749.84     |  29.0 | 71.76
Comm    | 73.206     | 144.99     | 217.61     | 286.5 | 14.15
Output  | 0.039971   | 0.3501     | 0.58456    |  29.7 |  0.03
Modify  | 50.735     | 83.199     | 123.76     | 204.8 |  8.12
Other   |            | 12.09      |            |       |  1.18

Nlocal:        2758.07 ave        5739 max        1235 min
Histogram: 192 0 49 47 0 78 27 23 40 24
Nghost:        14301.8 ave       28193 max        7372 min
Histogram: 108 84 72 41 51 16 60 20 12 16
Neighs:          39219 ave       53988 max        9316 min
Histogram: 9 22 21 32 104 52 0 0 9 231

Total # of neighbors = 18825119
Ave neighs/atom = 14.219721
Ave special neighs/atom = 0.21680462
Neighbor list builds = 16849
Dangerous builds = 0
========================================
Flow simulation complete
========================================
System init for write_data ...
Generated 0 of 15 mixed pair_coeff terms from geometric mixing rule
Last active /omp style is bond_style fene/omp
WARNING: More than one fix rigid (src/RIGID/fix_rigid.cpp:712)
WARNING: More than one fix rigid (src/RIGID/fix_rigid.cpp:712)
WARNING: More than one fix rigid (src/RIGID/fix_rigid.cpp:712)
WARNING: Not all mixed pair coeffs generated from mixing. Use write_data with 'pair ij' option to store all pair coeffs. (src/write_data.cpp:364)
Total wall time: 0:18:57
======================================
Running post-processing...
======================================
Generating convergence plot...
Plot saved to ./output_plots/convergence_plots/walled_slab_support_5beads_10x10x5_rho6_extra_padding43_1.5_1.4_10000000_1.5_1.4_100000_convergence.png
Generating stress profiles...
Warning: Could not find data file (tried walled_slab_support_5beads_10x10x5_rho6_extra_padding43.data and walled_slab_support_5beads_10x10x5_rho6_extra_padding43_1.5_1.4_10000000_1.5_1.4_100000.data), using default box dimensions
Stress profile saved to ./output_plots/walled_slab_support_5beads_10x10x5_rho6_extra_padding43_1.5_1.4_10000000_1.5_1.4_100000_stress.png
No volume data found for walled_slab_support_5beads_10x10x5_rho6_extra_padding43_1.5_1.4_10000000_1.5_1.4_100000, skipping volume fraction plots
Generating piston plots...
Read 11 position points, 11 velocity points
Piston plot saved to ./output_plots/walled_slab_support_5beads_10x10x5_rho6_extra_padding43_1.5_1.4_10000000_1.5_1.4_100000_piston.png

=== Piston Summary ===
Initial position: 58.7457
Final position:   51.7539
Total displacement: -6.9917
Steady-state velocity: -2.16e-03 ± 3.12e-03
Generating computational efficiency plot...
Found data file: ./data_files/walled_slab_support_5beads_10x10x5_rho6_extra_padding43_1.5_1.4_10000000.data
Mobile atoms: 1104570
Entry 'walled_slab_support_5beads_10x10x5_rho6_extra_padding43_1.5_1.4_10000000_1.5_1.4_100000' already exists in tracking file, skipping.
Tracking info written to /jet/home/dpollard/Documents/lammps_work/tracking.txt
Saved /jet/home/dpollard/Documents/lammps_work/time_vs_atoms.png
Saved /jet/home/dpollard/Documents/lammps_work/time_vs_timesteps.png
======================================
Done! Results are in: /jet/home/dpollard/Documents/lammps_runs/slab_with_flow_walled_slab_support_5beads_10x10x5_rho6_extra_padding43_1.5_1.4_10000000_1.5_1.4_20260109_134158
======================================
