======================================
Working directory: /jet/home/dpollard/Documents/lammps_runs/slab_with_support_slab_support_5beads_10x10x5_rho6_extra_padding43_1.5_1.4_20260104_140338
Trajectory directory (scratch): /ocean/projects/chm250028p/dpollard/lammps_trajectories/slab_with_support_slab_support_5beads_10x10x5_rho6_extra_padding43_1.5_1.4_20260104_140338
======================================
Running LAMMPS in slab_with_support with:
  dataname=slab_support_5beads_10x10x5_rho6_extra_padding43
  epsSS=1.5, epsSP=1.4
  nsteps=20000, oldsteps=0, totsteps=20000
SLURM tasks per node: 120
SLURM CPUs per task: 1
SLURM_GPUS_ON_NODE: 
GPUs allocated: 
Running CPU-only with 120 tasks
LAMMPS (22 Jul 2025)
OMP_NUM_THREADS environment is not set. Defaulting to 1 thread.
  using 1 OpenMP thread(s) per MPI task
using multi-threaded neighbor list subroutines
Reading data file ...
  orthogonal box = (0 0 0) to (87 87 55.5)
  5 by 6 by 4 MPI processor grid
  reading atoms ...
  766478 atoms
  scanning bonds ...
  3 = max bonds/atom
  orthogonal box = (0 0 0) to (87 87 55.5)
  5 by 6 by 4 MPI processor grid
  reading bonds ...
  144000 bonds
Finding 1-2 1-3 1-4 neighbors ...
  special bond factors lj:    0        0        0       
  special bond factors coul:  0        0        0       
     4 = max # of 1-2 neighbors
     4 = max # of 1-3 neighbors
     8 = max # of 1-4 neighbors
    12 = max # of special neighbors
  special bonds CPU = 0.039 seconds
  read_data CPU = 6.137 seconds
>>> is_restart = 0
>>> Previous    # of timesteps: 0
>>> Current     # of timesteps: 20000
>>> Cumulative  # of timesteps: 20000
127091 atoms in group polymer
420079 atoms in group solvent
109654 atoms in group support
109654 atoms in group piston
547170 atoms in group mobile
346399 atoms in group polymer_and_support
Finding 1-2 1-3 1-4 neighbors ...
  special bond factors lj:    0        1        1       
  special bond factors coul:  0        1        1       
     4 = max # of 1-2 neighbors
    12 = max # of special neighbors
  special bonds CPU = 0.007 seconds
Generated 0 of 10 mixed pair_coeff terms from geometric mixing rule
Last active /omp style is bond_style fene/omp
Neighbor list info ...
  update: every = 1 steps, delay = 0 steps, check = yes
  max neighbors/atom: 2000, page size: 100000
  master list distance cutoff = 2.8
  ghost atom cutoff = 5
  binsize = 1.4, bins = 63 63 40
  1 neighbor lists, perpetual/occasional/extra = 1 0 0
  (1) pair lj/cut/omp, perpetual
      attributes: half, newton on, omp
      pair build: half/bin/newton/omp
      stencil: half/bin/3d
      bin: standard
Setting up cg style minimization ...
  Unit style    : lj
  Current step  : 0
Per MPI rank memory allocation (min/avg/max) = 19.38 | 24.75 | 29.97 Mbytes
   Step          Temp          E_pair         E_mol          TotEng         Press     
         0   0              5.4656452e+18  17181.681      5.4656452e+18  3.9890514e+19
      2908   0             -4.591412       4.2655365     -0.32587546     56.258656    
Loop time of 65.3191 on 120 procs for 2908 steps with 766478 atoms

98.8% CPU use with 120 MPI tasks x 1 OpenMP threads

Minimization stats:
  Stopping criterion = energy tolerance
  Energy initial, next-to-last, final = 
    5.46564523121816e+18 -0.325846282684205 -0.325875464186927
  Force two-norm initial, final = 5.1165644e+27 353.59755
  Force max component initial, final = 2.7623355e+27 16.527137
  Final line search alpha, max atom move = 0.0014915026 0.024650268
  Iterations, force evaluations = 2908 3317

MPI task timing breakdown:
Section |  min time  |  avg time  |  max time  |%varavg| %total
---------------------------------------------------------------
Pair    | 13.17      | 19.415     | 28.252     | 100.2 | 29.72
Bond    | 0.0094303  | 0.17189    | 0.50833    |  32.6 |  0.26
Neigh   | 23.76      | 24.208     | 24.888     |   5.4 | 37.06
Comm    | 7.4604     | 15.984     | 21.809     | 100.6 | 24.47
Output  | 0          | 0          | 0          |   0.0 |  0.00
Modify  | 0.25819    | 0.54748    | 0.80334    |  22.4 |  0.84
Other   |            | 4.993      |            |       |  7.64

Nlocal:        6387.32 ave        8359 max        4435 min
Histogram: 60 0 0 0 0 0 0 0 0 60
Nghost:        24269.1 ave       32412 max       15959 min
Histogram: 60 0 0 0 0 0 0 0 0 60
Neighs:         277289 ave      294264 max      261091 min
Histogram: 8 8 8 27 26 6 1 10 22 4

Total # of neighbors = 33274624
Ave neighs/atom = 43.412367
Ave special neighs/atom = 0.37574464
Neighbor list builds = 644
Dangerous builds = 20
Generated 0 of 10 mixed pair_coeff terms from geometric mixing rule
Last active /omp style is bond_style fene/omp
Setting up Verlet run ...
  Unit style    : lj
  Current step  : 0
  Time step     : 0.001
Per MPI rank memory allocation (min/avg/max) = 17.64 | 22.13 | 26.6 Mbytes
   Step          Temp          PotEng         KinEng         TotEng         Press          Volume           Lx             Ly             Lz      
         0   0.07138753    -0.32587546     0.10708116    -0.21879431     56.388909      420079.5       87             87             55.5         
      1000   0.47314794     0.34296576     0.70972098     1.0526867      62.705756      420079.5       87             87             55.5         
Loop time of 6.52039 on 120 procs for 1000 steps with 766478 atoms

Performance: 13250.749 tau/day, 153.365 timesteps/s, 117.551 Matom-step/s
98.1% CPU use with 120 MPI tasks x 1 OpenMP threads

MPI task timing breakdown:
Section |  min time  |  avg time  |  max time  |%varavg| %total
---------------------------------------------------------------
Pair    | 3.2234     | 3.4452     | 3.678      |   5.8 | 52.84
Bond    | 0.002008   | 0.017795   | 0.035566   |   8.3 |  0.27
Neigh   | 0.6761     | 0.68842    | 0.70401    |   0.9 | 10.56
Comm    | 1.2798     | 1.653      | 1.9251     |  13.4 | 25.35
Output  | 0.00010731 | 0.0017102  | 0.0028305  |   2.3 |  0.03
Modify  | 0.31562    | 0.3851     | 0.45862    |   7.9 |  5.91
Other   |            | 0.3292     |            |       |  5.05

Nlocal:        6387.32 ave        8352 max        4454 min
Histogram: 60 0 0 0 0 0 0 0 0 60
Nghost:          24269 ave       32364 max       15988 min
Histogram: 60 0 0 0 0 0 0 0 0 60
Neighs:         277066 ave      291156 max      263742 min
Histogram: 9 7 10 25 28 4 1 8 18 10

Total # of neighbors = 33247923
Ave neighs/atom = 43.377531
Ave special neighs/atom = 0.37574464
Neighbor list builds = 19
Dangerous builds = 0
Generated 0 of 10 mixed pair_coeff terms from geometric mixing rule
Last active /omp style is bond_style fene/omp
Setting up Verlet run ...
  Unit style    : lj
  Current step  : 0
  Time step     : 0.005
Per MPI rank memory allocation (min/avg/max) = 17.64 | 22.13 | 26.6 Mbytes
   Step          Temp          PotEng         KinEng         TotEng         Press          Volume           Lx             Ly             Lz      
         0   0.47314794     0.34296576     0.70972098     1.0526867      62.705756      420079.5       87             87             55.5         
      1000   0.69403518    -1.8150445      1.0410514     -0.77399309     1.4320571      603193.37      98.150897      98.150897      62.613504    
Loop time of 12.8769 on 120 procs for 1000 steps with 766478 atoms

Performance: 33548.363 tau/day, 77.658 timesteps/s, 59.523 Matom-step/s
98.7% CPU use with 120 MPI tasks x 1 OpenMP threads

MPI task timing breakdown:
Section |  min time  |  avg time  |  max time  |%varavg| %total
---------------------------------------------------------------
Pair    | 2.4619     | 2.6483     | 2.8716     |   6.2 | 20.57
Bond    | 0.0030596  | 0.032331   | 0.10158    |  11.5 |  0.25
Neigh   | 6.957      | 7.0737     | 7.2272     |   2.8 | 54.93
Comm    | 1.6637     | 2.1034     | 2.4196     |  13.8 | 16.33
Output  | 0.00010847 | 0.00012531 | 0.00032013 |   0.0 |  0.00
Modify  | 0.76199    | 0.93168    | 1.2419     |  12.9 |  7.24
Other   |            | 0.08737    |            |       |  0.68

Nlocal:        6387.32 ave        8346 max        4469 min
Histogram: 60 0 0 0 0 0 0 0 0 60
Nghost:        20753.8 ave       28047 max       13454 min
Histogram: 60 0 0 0 0 0 0 0 0 60
Neighs:         183095 ave      193361 max      172895 min
Histogram: 1 9 21 16 34 3 0 3 22 11

Total # of neighbors = 21971411
Ave neighs/atom = 28.665416
Ave special neighs/atom = 0.37574464
Neighbor list builds = 222
Dangerous builds = 0
Generated 0 of 10 mixed pair_coeff terms from geometric mixing rule
Last active /omp style is bond_style fene/omp
Setting up Verlet run ...
  Unit style    : lj
  Current step  : 1000
  Time step     : 0.005
Per MPI rank memory allocation (min/avg/max) = 17.65 | 22.14 | 26.61 Mbytes
   Step          Temp          PotEng         KinEng         TotEng         Press          Volume           Lx             Ly             Lz      
      1000   0.69403518    -1.8150445      1.0410514     -0.77399309     1.4320571      603193.37      98.150897      98.150897      62.613504    
     10000   0.7574411     -1.4778495      1.1361602     -0.3416893      0.99784073     632755.73      99.728844      99.728844      63.620125    
     20000   0.76450786    -1.4556072      1.1467603     -0.30884693     0.98068391     634776.34      99.834888      99.834888      63.687773    
     21000   0.76804721    -1.4525733      1.1520693     -0.30050395     1.0201546      634678.59      99.829763      99.829763      63.684504    
Loop time of 195.198 on 120 procs for 20000 steps with 766478 atoms

Performance: 44262.766 tau/day, 102.460 timesteps/s, 78.533 Matom-step/s
98.7% CPU use with 120 MPI tasks x 1 OpenMP threads

MPI task timing breakdown:
Section |  min time  |  avg time  |  max time  |%varavg| %total
---------------------------------------------------------------
Pair    | 40.356     | 44.336     | 48.78      |  34.0 | 22.71
Bond    | 0.061894   | 0.63849    | 1.6579     |  51.8 |  0.33
Neigh   | 94.025     | 95.578     | 97.67      |  10.1 | 48.96
Comm    | 27.038     | 35.217     | 41.114     |  65.0 | 18.04
Output  | 0.022      | 0.073246   | 0.14076    |  17.8 |  0.04
Modify  | 14.551     | 17.8       | 23.616     |  56.9 |  9.12
Other   |            | 1.555      |            |       |  0.80

Nlocal:        6387.32 ave        8373 max        4406 min
Histogram: 60 0 0 0 0 0 0 0 0 60
Nghost:        20251.5 ave       27397 max       12936 min
Histogram: 60 0 0 0 0 0 0 0 0 60
Neighs:         174650 ave      188384 max      162879 min
Histogram: 12 18 10 33 11 0 0 0 11 25

Total # of neighbors = 20958003
Ave neighs/atom = 27.343254
Ave special neighs/atom = 0.37574464
Neighbor list builds = 3382
Dangerous builds = 0
System init for write_restart ...
Generated 0 of 10 mixed pair_coeff terms from geometric mixing rule
Last active /omp style is bond_style fene/omp
System init for write_data ...
Generated 0 of 10 mixed pair_coeff terms from geometric mixing rule
Last active /omp style is bond_style fene/omp
WARNING: Not all mixed pair coeffs generated from mixing. Use write_data with 'pair ij' option to store all pair coeffs. (src/write_data.cpp:364)
Total wall time: 0:04:48
======================================
Running post-processing...
======================================
Generating convergence plot...
Plot saved to ./output_plots/convergence_plots/slab_support_5beads_10x10x5_rho6_extra_padding43_1.5_1.4_20000_convergence.png
Generating stress profiles...
No stress data found for slab_support_5beads_10x10x5_rho6_extra_padding43_1.5_1.4_20000, skipping stress plots
No volume data found for slab_support_5beads_10x10x5_rho6_extra_padding43_1.5_1.4_20000, skipping volume fraction plots
Generating computational efficiency plot...
Mobile atoms: 547168
Entry 'slab_support_5beads_10x10x5_rho6_extra_padding43_1.5_1.4_20000' already exists in tracking file, skipping.
Tracking info written to /jet/home/dpollard/Documents/lammps_work/tracking.txt
Saved /jet/home/dpollard/Documents/lammps_work/time_vs_atoms.png
Saved /jet/home/dpollard/Documents/lammps_work/time_vs_timesteps.png
======================================
Done! Results are in: /jet/home/dpollard/Documents/lammps_runs/slab_with_support_slab_support_5beads_10x10x5_rho6_extra_padding43_1.5_1.4_20260104_140338
======================================
