======================================
Working directory: /home/pollard/Documents/lammps_runs/slab_with_support_slab_support_5beads_10x10x5_rho6_extra_padding43_1.5_1.4_20260102_175155
Trajectory directory (scratch): /scratch/pollard/lammps_trajectories/slab_with_support_slab_support_5beads_10x10x5_rho6_extra_padding43_1.5_1.4_20260102_175155
======================================
Running LAMMPS in slab_with_support with:
  dataname=slab_support_5beads_10x10x5_rho6_extra_padding43
  epsSS=1.5, epsSP=1.4
  nsteps=10000000, oldsteps=0, totsteps=10000000
SLURM tasks per node: 40
SLURM CPUs per task: 1
LAMMPS (22 Jul 2025 - Update 1)
OMP_NUM_THREADS environment is not set. Defaulting to 1 thread.
  using 1 OpenMP thread(s) per MPI task
using multi-threaded neighbor list subroutines
Reading data file ...
  orthogonal box = (0 0 0) to (87 87 55.5)
  5 by 4 by 2 MPI processor grid
  reading atoms ...
  766478 atoms
  scanning bonds ...
  3 = max bonds/atom
  orthogonal box = (0 0 0) to (87 87 55.5)
  5 by 4 by 2 MPI processor grid
  reading bonds ...
  144000 bonds
Finding 1-2 1-3 1-4 neighbors ...
  special bond factors lj:    0        0        0       
  special bond factors coul:  0        0        0       
     4 = max # of 1-2 neighbors
     4 = max # of 1-3 neighbors
     8 = max # of 1-4 neighbors
    12 = max # of special neighbors
  special bonds CPU = 0.018 seconds
  read_data CPU = 2.223 seconds
>>> is_restart = 0
>>> Previous    # of timesteps: 0
>>> Current     # of timesteps: 10000000
>>> Cumulative  # of timesteps: 10000000
127091 atoms in group polymer
420079 atoms in group solvent
109654 atoms in group support
109654 atoms in group piston
547170 atoms in group mobile
346399 atoms in group polymer_and_support
Finding 1-2 1-3 1-4 neighbors ...
  special bond factors lj:    0        1        1       
  special bond factors coul:  0        1        1       
     4 = max # of 1-2 neighbors
    12 = max # of special neighbors
  special bonds CPU = 0.009 seconds
Generated 0 of 10 mixed pair_coeff terms from geometric mixing rule
Last active /omp style is bond_style fene/omp
Neighbor list info ...
  update: every = 1 steps, delay = 0 steps, check = yes
  max neighbors/atom: 2000, page size: 100000
  master list distance cutoff = 2.8
  ghost atom cutoff = 5
  binsize = 1.4, bins = 63 63 40
  1 neighbor lists, perpetual/occasional/extra = 1 0 0
  (1) pair lj/cut/omp, perpetual
      attributes: half, newton on, omp
      pair build: half/bin/newton/omp
      stencil: half/bin/3d
      bin: standard
Setting up cg style minimization ...
  Unit style    : lj
  Current step  : 0
Per MPI rank memory allocation (min/avg/max) = 38.72 | 43.98 | 50.27 Mbytes
   Step          Temp          E_pair         E_mol          TotEng         Press     
         0   0              5.4656452e+18  17181.681      5.4656452e+18  3.9890514e+19
      3106   0             -4.6343452      4.2498349     -0.38451023     55.847266    
Loop time of 160.985 on 40 procs for 3106 steps with 766478 atoms

95.1% CPU use with 40 MPI tasks x 1 OpenMP threads

Minimization stats:
  Stopping criterion = energy tolerance
  Energy initial, next-to-last, final = 
    5.46564523121815e+18  -0.38447443231529 -0.384510228925925
  Force two-norm initial, final = 5.1165644e+27 321.96613
  Force max component initial, final = 2.7623355e+27 86.619883
  Final line search alpha, max atom move = 0.0017023212 0.14745486
  Iterations, force evaluations = 3106 3760

MPI task timing breakdown:
Section |  min time  |  avg time  |  max time  |%varavg| %total
---------------------------------------------------------------
Pair    | 51.486     | 66.061     | 87.528     | 136.4 | 41.04
Bond    | 0.13843    | 0.60578    | 1.3544     |  49.6 |  0.38
Neigh   | 52.857     | 53.303     | 53.749     |   2.6 | 33.11
Comm    | 11.821     | 33.807     | 48.733     | 195.6 | 21.00
Output  | 0          | 0          | 0          |   0.0 |  0.00
Modify  | 1.5099     | 1.6599     | 1.8255     |   6.8 |  1.03
Other   |            | 5.548      |            |       |  3.45

Nlocal:          19162 ave       19481 max       18815 min
Histogram: 3 1 2 8 6 4 7 3 4 2
Nghost:        48874.6 ave       49157 max       48644 min
Histogram: 3 5 4 7 5 5 3 2 2 4
Neighs:         831973 ave      863918 max      805727 min
Histogram: 7 1 1 12 6 1 5 1 1 5

Total # of neighbors = 33278931
Ave neighs/atom = 43.417986
Ave special neighs/atom = 0.37574464
Neighbor list builds = 732
Dangerous builds = 19
Generated 0 of 10 mixed pair_coeff terms from geometric mixing rule
Last active /omp style is bond_style fene/omp
Setting up Verlet run ...
  Unit style    : lj
  Current step  : 0
  Time step     : 0.001
Per MPI rank memory allocation (min/avg/max) = 41.63 | 42.34 | 44.65 Mbytes
   Step          Temp          PotEng         KinEng         TotEng         Press          Volume           Lx             Ly             Lz      
         0   0.07138753    -0.38451023     0.10708116    -0.27742907     55.97752       420079.5       87             87             55.5         
      1000   0.46908402     0.29574248     0.70362511     0.99936759     62.36423       420079.5       87             87             55.5         
Loop time of 15.2172 on 40 procs for 1000 steps with 766478 atoms

Performance: 5677.773 tau/day, 65.715 timesteps/s, 50.369 Matom-step/s
92.9% CPU use with 40 MPI tasks x 1 OpenMP threads

MPI task timing breakdown:
Section |  min time  |  avg time  |  max time  |%varavg| %total
---------------------------------------------------------------
Pair    | 9.4581     | 9.7438     | 10.101     |   5.8 | 64.03
Bond    | 0.036254   | 0.10962    | 0.21056    |  16.0 |  0.72
Neigh   | 1.2024     | 1.212      | 1.2189     |   0.4 |  7.96
Comm    | 2.0475     | 2.4863     | 2.9099     |  15.3 | 16.34
Output  | 0.00015528 | 0.00026767 | 0.00037035 |   0.0 |  0.00
Modify  | 1.1988     | 1.3221     | 1.4367     |   5.2 |  8.69
Other   |            | 0.3432     |            |       |  2.26

Nlocal:          19162 ave       19454 max       18834 min
Histogram: 2 2 2 7 7 3 8 1 5 3
Nghost:        48869.9 ave       49165 max       48643 min
Histogram: 5 2 5 8 5 6 2 3 2 2
Neighs:         831296 ave      862730 max      807236 min
Histogram: 8 0 3 11 5 3 3 1 2 4

Total # of neighbors = 33251821
Ave neighs/atom = 43.382616
Ave special neighs/atom = 0.37574464
Neighbor list builds = 18
Dangerous builds = 0
Generated 0 of 10 mixed pair_coeff terms from geometric mixing rule
Last active /omp style is bond_style fene/omp
Setting up Verlet run ...
  Unit style    : lj
  Current step  : 0
  Time step     : 0.005
Per MPI rank memory allocation (min/avg/max) = 41.63 | 42.34 | 44.65 Mbytes
   Step          Temp          PotEng         KinEng         TotEng         Press          Volume           Lx             Ly             Lz      
         0   0.46908402     0.29574248     0.70362511     0.99936759     62.36423       420079.5       87             87             55.5         
      1000   0.69505023    -1.8166957      1.042574      -0.77412166     1.4359788      602873.62      98.133551      98.133551      62.602438    
Loop time of 27.0837 on 40 procs for 1000 steps with 766478 atoms

Performance: 15950.546 tau/day, 36.923 timesteps/s, 28.300 Matom-step/s
95.6% CPU use with 40 MPI tasks x 1 OpenMP threads

MPI task timing breakdown:
Section |  min time  |  avg time  |  max time  |%varavg| %total
---------------------------------------------------------------
Pair    | 7.7167     | 8.0231     | 8.423      |   7.1 | 29.62
Bond    | 0.046081   | 0.14427    | 0.25768    |  15.8 |  0.53
Neigh   | 13.271     | 13.392     | 13.478     |   1.6 | 49.45
Comm    | 2.9092     | 3.4417     | 3.93       |  15.1 | 12.71
Output  | 0.00013298 | 0.00014581 | 0.0001701  |   0.0 |  0.00
Modify  | 1.7333     | 1.8275     | 1.9012     |   3.5 |  6.75
Other   |            | 0.2547     |            |       |  0.94

Nlocal:          19162 ave       19451 max       18828 min
Histogram: 1 3 3 7 4 7 3 4 3 5
Nghost:        42636.2 ave       43004 max       42334 min
Histogram: 3 8 5 6 1 3 4 3 4 3
Neighs:         549432 ave      573679 max      531493 min
Histogram: 4 4 8 5 4 5 4 0 1 5

Total # of neighbors = 21977293
Ave neighs/atom = 28.67309
Ave special neighs/atom = 0.37574464
Neighbor list builds = 221
Dangerous builds = 0
Generated 0 of 10 mixed pair_coeff terms from geometric mixing rule
Last active /omp style is bond_style fene/omp
Setting up Verlet run ...
  Unit style    : lj
  Current step  : 1000
  Time step     : 0.005
Per MPI rank memory allocation (min/avg/max) = 41.65 | 42.36 | 44.67 Mbytes
   Step          Temp          PotEng         KinEng         TotEng         Press          Volume           Lx             Ly             Lz      
      1000   0.69505023    -1.8166957      1.042574      -0.77412166     1.4359788      602873.62      98.133551      98.133551      62.602438    
     10000   0.75827249    -1.4793137      1.1374073     -0.34190644     1.0043995      632792.18      99.730759      99.730759      63.621346    
     20000   0.76639071    -1.4542077      1.1495846     -0.30462315     0.98440251     634833.99      99.83791       99.83791       63.689701    
     30000   0.77157972    -1.438132       1.1573681     -0.28076394     0.98861509     635960.22      99.896914      99.896914      63.727342    
     40000   0.77824394    -1.4223856      1.1673644     -0.25502119     1.0112587      637208.59      99.962237      99.962237      63.769013    
     50000   0.77995734    -1.4128223      1.1699345     -0.24288785     1.003209       637989.69      100.00306      100.00306      63.795059    
     60000   0.78289028    -1.3985811      1.1743339     -0.22424727     1.0016842      639080.94      100.06005      100.06005      63.831411    
     70000   0.78779821    -1.3924679      1.1816958     -0.21077209     0.99216934     639767.97      100.09589      100.09589      63.854276    
     80000   0.79209879    -1.3822121      1.1881466     -0.19406551     1.0050719      640415.76      100.12966      100.12966      63.87582     
     90000   0.79437071    -1.3737069      1.1915545     -0.18215239     1.0042209      641222.03      100.17167      100.17167      63.902615    
    100000   0.79742746    -1.3697796      1.1961396     -0.17363994     1.0112401      641491.45      100.18569      100.18569      63.911564    
    110000   0.79882032    -1.3585131      1.1982289     -0.16028419     1.0085785      642286.31      100.22706      100.22706      63.93795     
    120000   0.80059168    -1.3554349      1.200886      -0.15454894     1.0062252      642665.73      100.24679      100.24679      63.950538    
    130000   0.80316699    -1.3477276      1.2047489     -0.14297869     1.0020913      643447.46      100.28742      100.28742      63.976457    
    140000   0.80350577    -1.3448383      1.2052571     -0.1395812      0.97914196     643834.44      100.30752      100.30752      63.98928     
    150000   0.80534366    -1.3375983      1.2080139     -0.12958437     0.98200814     644173.31      100.32511      100.32511      64.000504    
    160000   0.80796381    -1.3317744      1.2119441     -0.11983026     0.99995569     644747.93      100.35494      100.35494      64.019529    
    170000   0.81085338    -1.3259627      1.2162785     -0.10968426     0.9981441      645263.25      100.38167      100.38167      64.03658     
    180000   0.81163204    -1.3253219      1.2174465     -0.10787548     1.0033965      645167.44      100.3767       100.3767       64.033411    
    190000   0.81288392    -1.321982       1.2193243     -0.10265774     1.0076765      645484.78      100.39315      100.39315      64.043908    
    200000   0.81482593    -1.3118126      1.2222373     -0.089575287    0.98969949     646488.94      100.44518      100.44518      64.077101    
    210000   0.81570948    -1.3130155      1.2235626     -0.089452898    1.0080567      646049.62      100.42243      100.42243      64.062583    
    220000   0.81647217    -1.3108536      1.2247067     -0.086146932    0.99572351     646671.27      100.45463      100.45463      64.083124    
    230000   0.81850477    -1.3047294      1.2277556     -0.076973818    1.0191844      646894.71      100.4662       100.4662       64.090504    
    240000   0.81695753    -1.3022322      1.2254347     -0.076797557    1.0055794      647237.31      100.48393      100.48393      64.101816    
    250000   0.82066053    -1.3016997      1.2309892     -0.070710501    0.97837153     647560.86      100.50067      100.50067      64.112496    
    260000   0.81991761    -1.2985804      1.2298748     -0.068705616    0.98924136     647696.64      100.50769      100.50769      64.116977    
    270000   0.82090147    -1.2962177      1.2313506     -0.064867088    0.99638316     647867.39      100.51652      100.51652      64.12261     
    280000   0.82194784    -1.294459       1.2329201     -0.061538858    1.0037201      647926.53      100.51958      100.51958      64.124561    
    290000   0.82394358    -1.2899623      1.2359138     -0.054048508    0.98250881     648562.81      100.55248      100.55248      64.145545    
    300000   0.8238316     -1.2896351      1.2357458     -0.053889331    0.99696705     648439.33      100.54609      100.54609      64.141474    
    310000   0.82489134    -1.2883086      1.2373354     -0.050973184    0.99554551     648474.59      100.54792      100.54792      64.142637    
    320000   0.8253219     -1.2861523      1.2379812     -0.04817111     0.99835232     648724.91      100.56085      100.56085      64.150889    
    330000   0.82656296    -1.2828134      1.2398428     -0.042970574    1.0058618      648978.5       100.57395      100.57395      64.159247    
    340000   0.827557      -1.2807714      1.2413339     -0.039437545    0.99899033     649218.62      100.58636      100.58636      64.167159    
    350000   0.82682243    -1.2780257      1.240232      -0.037793667    1.0134881      649180.95      100.58441      100.58441      64.165918    
    360000   0.82952057    -1.2788555      1.2442792     -0.034576267    0.99988147     649480.44      100.59988      100.59988      64.175784    
    370000   0.82770472    -1.2757772      1.2415555     -0.034221715    0.98812516     649693.98      100.6109       100.6109       64.182816    
    380000   0.82706339    -1.2752563      1.2405935     -0.034662855    0.98835337     649771.25      100.61489      100.61489      64.18536     
    390000   0.83014946    -1.2729494      1.2452226     -0.027726807    0.98236828     650083.93      100.63103      100.63103      64.195654    
    400000   0.83043228    -1.2728855      1.2456468     -0.027238759    0.99745927     649966.52      100.62497      100.62497      64.191789    
    410000   0.83088745    -1.2732176      1.2463295     -0.026888017    0.97716986     650060.36      100.62981      100.62981      64.194879    
    420000   0.83057905    -1.271648       1.2458669     -0.025781017    0.98583159     650227.28      100.63842      100.63842      64.200373    
    430000   0.83274933    -1.2677644      1.2491224     -0.018642073    0.99517502     650388.99      100.64676      100.64676      64.205694    
    440000   0.83212908    -1.265287       1.248192      -0.017095038    0.97432551     650866.79      100.6714       100.6714       64.221413    
    450000   0.83270989    -1.2674807      1.2490632     -0.01841745     0.99968871     650507.18      100.65286      100.65286      64.209583    
    460000   0.83323389    -1.2681468      1.2498492     -0.018297576    0.99571656     650405.61      100.64762      100.64762      64.206241    
    470000   0.83503787    -1.2663165      1.2525552     -0.013761375    1.0136762      650384.15      100.64651      100.64651      64.205535    
    480000   0.83396572    -1.2652215      1.250947      -0.01427455     1.0110092      650517.53      100.65339      100.65339      64.209924    
    490000   0.8343765     -1.2603189      1.2515631     -0.0087557821   1.0073148      650935.17      100.67493      100.67493      64.223662    
    500000   0.83532639    -1.2625185      1.2529879     -0.009530597    0.9847667      650965.51      100.67649      100.67649      64.22466     
    510000   0.83538441    -1.2618116      1.253075      -0.0087366709   0.99377359     650825.58      100.66928      100.66928      64.220058    
    520000   0.83465985    -1.2549675      1.2519881     -0.0029793977   0.9867964      651515.2       100.70482      100.70482      64.242733    
    530000   0.83658508    -1.2599405      1.254876      -0.0050644696   0.99697561     651084.47      100.68263      100.68263      64.228572    
    540000   0.83604741    -1.2593834      1.2540695     -0.0053139256   1.0089499      651161.53      100.6866       100.6866       64.231106    
    550000   0.83600725    -1.2593462      1.2540092     -0.0053369247   0.97896491     651331.26      100.69535      100.69535      64.236686    
    560000   0.8362286     -1.2550475      1.2543413     -0.0007062283   0.99827152     651431.45      100.70051      100.70051      64.23998     
    570000   0.83647602    -1.2546625      1.2547124      4.9843827e-05  0.99395769     651585.49      100.70845      100.70845      64.245043    
    580000   0.83723329    -1.2565287      1.2558483     -0.0006803704   0.99448158     651332.08      100.69539      100.69539      64.236713    
    590000   0.83629908    -1.2549045      1.254447      -0.00045756737  1.0015829      651449.5       100.70144      100.70144      64.240573    
    600000   0.83724878    -1.2522495      1.2558715      0.0036219953   1.0025255      651767.29      100.71781      100.71781      64.251017    
    610000   0.83775121    -1.2529572      1.2566252      0.0036680091   1.0174614      651365.14      100.69709      100.69709      64.2378      
    620000   0.83742434    -1.2501997      1.2561349      0.0059352066   1.0054827      651889.48      100.7241       100.7241       64.255032    
    630000   0.83866414    -1.252581       1.2579946      0.005413524    0.9930948      651807.49      100.71988      100.71988      64.252338    
    640000   0.83769071    -1.2534618      1.2565344      0.0030726645   0.99693273     651675.46      100.71308      100.71308      64.247999    
    650000   0.84030706    -1.2516038      1.2604589      0.008855116    1.0172706      651718.98      100.71532      100.71532      64.24943     
    660000   0.83856307    -1.251231       1.257843       0.0066119957   0.98911042     652032.88      100.73149      100.73149      64.259743    
    670000   0.83836355    -1.2483171      1.2575437      0.009226537    1.0100849      652022.11      100.73093      100.73093      64.259389    
    680000   0.83963327    -1.249021       1.2594483      0.010427313    1.0094349      651961.45      100.72781      100.72781      64.257397    
    690000   0.83859854    -1.2480781      1.2578962      0.0098180808   0.9826487      652290.53      100.74476      100.74476      64.268206    
    700000   0.83976394    -1.2481247      1.2596443      0.011519552    0.98964265     652227.4       100.74151      100.74151      64.266133    
    710000   0.83920051    -1.2471193      1.2587991      0.01167982     0.99477562     652329         100.74674      100.74674      64.26947     
    720000   0.8409459     -1.2499668      1.2614172      0.011450354    1.0087025      651936.59      100.72653      100.72653      64.25658     
    730000   0.8397518     -1.2462279      1.2596261      0.013398137    0.98712222     652431.83      100.75203      100.75203      64.272846    
    740000   0.83873609    -1.2492257      1.2581025      0.0088767875   0.99490433     652137.64      100.73688      100.73688      64.263185    
    750000   0.84007145    -1.2484153      1.2601055      0.011690273    0.98908144     652268.24      100.74361      100.74361      64.267474    
    760000   0.8405642     -1.248021       1.2608447      0.012823613    1.0128031      652091.52      100.73451      100.73451      64.261669    
    770000   0.84174634    -1.245517       1.2626179      0.017100908    0.99908927     652415.43      100.75119      100.75119      64.272308    
    780000   0.84201778    -1.245566       1.263025       0.017458972    1.0181176      652320.71      100.74631      100.74631      64.269197    
    790000   0.84204026    -1.2487517      1.2630587      0.014307054    0.99337422     652285.55      100.7445       100.7445       64.268043    
    800000   0.84185445    -1.2439877      1.26278        0.018792314    0.97641377     652723.42      100.76704      100.76704      64.28242     
    810000   0.84295789    -1.2460528      1.2644352      0.018382432    0.99938332     652390.25      100.74989      100.74989      64.271481    
    820000   0.83955817    -1.2445329      1.2593356      0.014802741    1.0144069      652285.02      100.74447      100.74447      64.268025    
    830000   0.84057758    -1.2446896      1.2608647      0.016175133    1.0024345      652497.02      100.75539      100.75539      64.274987    
    840000   0.84131057    -1.2450156      1.2619642      0.016948653    0.99345661     652518.97      100.75651      100.75651      64.275708    
    850000   0.84220834    -1.2436649      1.2633109      0.019645909    1.0042032      652597.79      100.76057      100.76057      64.278296    
    860000   0.8413885     -1.2470431      1.2620811      0.015037963    0.98975529     652420.41      100.75144      100.75144      64.272471    
    870000   0.84050225    -1.2457978      1.2607517      0.014953924    1.0047107      652368.77      100.74878      100.74878      64.270776    
    880000   0.8419645     -1.2445297      1.2629451      0.018415392    0.98752289     652564.29      100.75885      100.75885      64.277196    
    890000   0.84240569    -1.2421713      1.2636069      0.021435586    0.98887174     652844.52      100.77327      100.77327      64.286395    
    900000   0.84288692    -1.2449573      1.2643287      0.019371419    0.99525831     652603.4       100.76086      100.76086      64.27848     
    910000   0.8420525     -1.2426368      1.2630771      0.020440255    1.0052098      652761.84      100.76901      100.76901      64.283681    
    920000   0.84181592    -1.2406793      1.2627222      0.022042877    1.0248622      652698.01      100.76573      100.76573      64.281586    
    930000   0.8418882     -1.2460333      1.2628307      0.01679732     0.99210975     652554.52      100.75834      100.75834      64.276875    
    940000   0.84157452    -1.2422582      1.2623601      0.020101958    0.99084523     652800.46      100.771        100.771        64.284949    
    950000   0.84271795    -1.2456415      1.2640753      0.01843374     0.99349898     652554.54      100.75835      100.75835      64.276876    
    960000   0.84327978    -1.2460954      1.264918       0.018822618    1.0129121      652288.92      100.74467      100.74467      64.268153    
    970000   0.84150016    -1.2427256      1.2622486      0.019522975    0.99844955     652703.95      100.76604      100.76604      64.281781    
    980000   0.84378767    -1.2433211      1.2656799      0.022358796    1.0147841      652556.18      100.75843      100.75843      64.276929    
    990000   0.84324933    -1.2497242      1.2648723      0.015148161    0.99867467     652171.22      100.73861      100.73861      64.264288    
   1000000   0.84214004    -1.2423836      1.2632084      0.020824778    1.0068195      652757.39      100.76878      100.76878      64.283535    
   1010000   0.84199955    -1.2406076      1.2629977      0.022390089    1.0015701      652846.55      100.77337      100.77337      64.286462    
   1020000   0.84251858    -1.2476212      1.2637762      0.016155052    1.0059958      652364.1       100.74854      100.74854      64.270622    
   1030000   0.84275126    -1.2457465      1.2641252      0.01837872     1.0058665      652557         100.75847      100.75847      64.276957    
   1040000   0.84229184    -1.2409968      1.2634361      0.02243935     0.997643       652912.46      100.77676      100.77676      64.288625    
   1050000   0.84521323    -1.2458463      1.2678182      0.021971889    0.99207729     652458.97      100.75343      100.75343      64.273738    
   1060000   0.84355614    -1.2436857      1.2653326      0.021646843    1.012601       652666.59      100.76411      100.76411      64.280555    
   1070000   0.8446565     -1.2441785      1.2669831      0.022804562    0.99866614     652700.46      100.76586      100.76586      64.281666    
   1080000   0.84305391    -1.246393       1.2645792      0.018186238    0.99262006     652573.75      100.75933      100.75933      64.277506    
   1090000   0.84373982    -1.241191       1.2656081      0.024417099    1.0073891      652901.65      100.77621      100.77621      64.288271    
   1100000   0.84278018    -1.2434284      1.2641686      0.020740204    0.98750078     652899.06      100.77607      100.77607      64.288185    
   1110000   0.84406437    -1.2429338      1.2660949      0.023161082    1.0051996      652729.34      100.76734      100.76734      64.282615    
   1120000   0.84414479    -1.2434846      1.2662155      0.02273095     1.021261       652424.26      100.75164      100.75164      64.272598    
   1130000   0.84358656    -1.2415343      1.2653782      0.023843904    1.0032772      652930.93      100.77771      100.77771      64.289231    
   1140000   0.84449317    -1.2412793      1.2667381      0.025458814    1.0184612      652744.04      100.7681       100.7681       64.283097    
   1150000   0.84272104    -1.242448       1.2640799      0.021631944    1.0035185      652755.22      100.76867      100.76867      64.283464    
   1160000   0.84241338    -1.2416689      1.2636184      0.021949497    1.0035432      652888.84      100.77555      100.77555      64.28785     
   1170000   0.8431325     -1.2429314      1.2646971      0.021765702    1.0171457      652605.62      100.76097      100.76097      64.278553    
   1180000   0.84322522    -1.2432408      1.2648362      0.021595384    1.0084554      652757.26      100.76878      100.76878      64.283531    
   1190000   0.84453565    -1.2411217      1.2668018      0.025680094    1.0196114      652694.68      100.76556      100.76556      64.281477    
   1200000   0.8419497     -1.2406894      1.2629229      0.022233473    1.0060942      652856.12      100.77387      100.77387      64.286776    
   1210000   0.84404978    -1.2420356      1.266073       0.024037413    0.99511049     652952.28      100.77881      100.77881      64.289932    
   1220000   0.84418451    -1.2431475      1.2662751      0.023127627    1.0011138      652844.88      100.77329      100.77329      64.286407    
   1230000   0.84478639    -1.241936       1.2671779      0.025241881    0.98531868     652941.49      100.77826      100.77826      64.289578    
   1240000   0.84345525    -1.2452895      1.2651812      0.019891716    0.99239715     652506.75      100.75589      100.75589      64.275307    
   1250000   0.84337003    -1.2424861      1.2650534      0.02256732     0.99164343     652872.66      100.77472      100.77472      64.287319    
   1260000   0.84295346    -1.2414946      1.2644285      0.022933901    0.97707375     653060.17      100.78436      100.78436      64.293473    
   1270000   0.84539049    -1.2439003      1.2680841      0.024183809    0.99024522     652902.85      100.77627      100.77627      64.28831     
   1280000   0.84474349    -1.240764       1.2671136      0.026349558    1.0050175      652922.74      100.77729      100.77729      64.288963    
   1290000   0.84253932    -1.2438244      1.2638073      0.019982906    1.0068123      652628.68      100.76216      100.76216      64.27931     
   1300000   0.84448903    -1.2427394      1.2667319      0.023992467    1.0114919      652853.21      100.77372      100.77372      64.286681    
   1310000   0.8444679     -1.2414806      1.2667002      0.025219618    1.0008789      652917.8       100.77704      100.77704      64.288801    
   1320000   0.8431407     -1.2436324      1.2647094      0.021077033    0.9974009      652776.11      100.76975      100.76975      64.28415     
   1330000   0.8437883     -1.2425573      1.2656808      0.023123502    0.98049886     652959.88      100.7792       100.7792       64.290182    
   1340000   0.84574799    -1.2458696      1.2686203      0.022750705    0.99709522     652590.46      100.76019      100.76019      64.278055    
   1350000   0.84342796    -1.2441224      1.2651403      0.021017862    0.99508922     652774.77      100.76968      100.76968      64.284106    
   1360000   0.84505806    -1.2432675      1.2675854      0.024317896    1.0075474      652714.7       100.76659      100.76659      64.282134    
   1370000   0.84655512    -1.2440314      1.269831       0.025799638    1.0091054      652748.32      100.76832      100.76832      64.283238    
   1380000   0.84421444    -1.2404544      1.26632        0.025865643    0.99161914     653029.72      100.7828       100.7828       64.292474    
   1390000   0.84417715    -1.239615       1.2662641      0.0266491      1.0061984      653080.16      100.78539      100.78539      64.294129    
   1400000   0.84556621    -1.2416046      1.2683477      0.026743084    1.0011417      652941.8       100.77827      100.77827      64.289588    
   1410000   0.84596941    -1.2371264      1.2689525      0.031826042    0.99906512     653454.27      100.80463      100.80463      64.306403    
   1420000   0.84451065    -1.2428765      1.2667643      0.023887836    0.99444053     652911.95      100.77674      100.77674      64.288609    
   1430000   0.84424686    -1.239968       1.2663686      0.026400612    0.98560568     653318.55      100.79765      100.79765      64.301951    
   1440000   0.84377363    -1.2423325      1.2656588      0.02332629     1.0074327      652825.34      100.77228      100.77228      64.285766    
   1450000   0.84545163    -1.2446123      1.2681758      0.023563505    1.0049477      652655.41      100.76354      100.76354      64.280187    
   1460000   0.84382613    -1.2397032      1.2657375      0.02603431     1.0007376      653146.12      100.78878      100.78878      64.296293    
   1470000   0.84593171    -1.2440973      1.2688959      0.024798612    0.99011639     652909.24      100.7766       100.7766       64.288519    
   1480000   0.84443848    -1.2482787      1.2666561      0.018377389    0.98526286     652547.51      100.75798      100.75798      64.276645    
   1490000   0.84313624    -1.2414968      1.2647027      0.023205917    1.0052882      652894.62      100.77585      100.77585      64.28804     
   1500000   0.84500894    -1.2459057      1.2675118      0.021606011    1.0176957      652504.83      100.75579      100.75579      64.275243    
   1510000   0.8449822     -1.2402986      1.2674716      0.027173066    1.0179476      652936.23      100.77799      100.77799      64.289405    
   1520000   0.84659359    -1.2422458      1.2698887      0.027642964    1.0069913      652984.19      100.78045      100.78045      64.29098     
   1530000   0.8449465     -1.2427669      1.2674181      0.024651158    1.0081804      652930.85      100.77771      100.77771      64.289229    
   1540000   0.84459412    -1.244735       1.2668895      0.022154525    0.99611303     652697.19      100.76569      100.76569      64.281559    
   1550000   0.84512266    -1.2432902      1.2676823      0.024392106    0.98679754     653017.86      100.78219      100.78219      64.292084    
   1560000   0.84505353    -1.2404385      1.2675786      0.027140164    0.98862798     653228.53      100.79302      100.79302      64.298997    
   1570000   0.84683082    -1.2432372      1.2702446      0.027007397    1.007639       653015.48      100.78206      100.78206      64.292006    
   1580000   0.8445623     -1.2450729      1.2668418      0.02176887     1.0002501      652820.79      100.77205      100.77205      64.285616    
   1590000   0.84471378    -1.2443481      1.267069       0.022720936    1.013576       652696.6       100.76566      100.76566      64.28154     
   1600000   0.84482491    -1.246635       1.2672357      0.020600731    0.99668377     652726.28      100.76718      100.76718      64.282514    
   1610000   0.84512596    -1.24472        1.2676873      0.02296731     0.98478769     652881.85      100.77519      100.77519      64.287621    
   1620000   0.84491107    -1.2414344      1.267365       0.025930556    0.99898751     653011.78      100.78187      100.78187      64.291885    
   1630000   0.8452513     -1.2416605      1.2678753      0.02621478     0.99783473     653097.2       100.78627      100.78627      64.294688    
   1640000   0.84410783    -1.2420838      1.2661601      0.024076338    0.99248823     653172.42      100.79014      100.79014      64.297156    
   1650000   0.84480507    -1.2414694      1.267206       0.025736508    1.0021591      652982.1       100.78035      100.78035      64.290911    
   1660000   0.84592003    -1.2443027      1.2688784      0.024575657    1.0121233      652811.13      100.77155      100.77155      64.285299    
   1670000   0.84480677    -1.244067       1.2672085      0.023141503    0.97938286     653041.44      100.7834       100.7834       64.292858    
   1680000   0.84530585    -1.2451972      1.2679571      0.022759918    0.99640022     652841.38      100.77311      100.77311      64.286292    
   1690000   0.84478011    -1.2416845      1.2671685      0.025484047    1.0041181      652874.9       100.77483      100.77483      64.287393    
   1700000   0.84485003    -1.2431892      1.2672734      0.024084142    1.0100229      652799.76      100.77097      100.77097      64.284926    
   1710000   0.8442452     -1.2450572      1.2663661      0.021308925    0.99450247     652770.48      100.76946      100.76946      64.283965    
   1720000   0.84290127    -1.2391673      1.2643503      0.025182914    0.99222409     653237.81      100.7935       100.7935       64.299302    
   1730000   0.8458281     -1.2455927      1.2687405      0.023147791    0.99208203     652850.84      100.77359      100.77359      64.286603    
   1740000   0.84405737    -1.240178       1.2660844      0.025906422    1.0024097      653166.82      100.78985      100.78985      64.296973    
   1750000   0.84458569    -1.2459856      1.2668769      0.020891249    1.0124514      652573.07      100.7593       100.7593       64.277484    
   1760000   0.84408868    -1.2436243      1.2661314      0.022507094    0.99518347     652784.54      100.77018      100.77018      64.284427    
   1770000   0.84278553    -1.2402508      1.2641766      0.023925822    0.99000808     653214.32      100.79229      100.79229      64.298531    
   1780000   0.84401215    -1.2404073      1.2660166      0.025609236    0.98623078     653419.4       100.80284      100.80284      64.305259    
   1790000   0.84383       -1.2463087      1.2657433      0.019434686    0.99631625     652660.32      100.76379      100.76379      64.280349    
   1800000   0.84488353    -1.2428404      1.2673236      0.024483272    0.99801459     653117.53      100.78731      100.78731      64.295355    
   1810000   0.84588391    -1.2450545      1.2688242      0.023769721    0.9851596      652931.66      100.77775      100.77775      64.289256    
   1820000   0.84431592    -1.2449562      1.2664722      0.021516005    1.0067566      652730.9       100.76742      100.76742      64.282666    
   1830000   0.84581707    -1.2452269      1.268724       0.023497074    0.99078485     652776.32      100.76976      100.76976      64.284157    
   1840000   0.84415749    -1.2413999      1.2662346      0.024834697    0.99343507     653124.84      100.78769      100.78769      64.295595    
   1850000   0.84363201    -1.2430904      1.2654464      0.022355921    1.0044373      652971.02      100.77978      100.77978      64.290547    
   1860000   0.84516842    -1.2445518      1.267751       0.023199209    1.0091172      652801.07      100.77103      100.77103      64.284969    
   1870000   0.84566482    -1.2438202      1.2684956      0.024675353    0.99619966     652994.37      100.78098      100.78098      64.291314    
   1880000   0.84609647    -1.2423452      1.2691431      0.026797829    1.0124549      652977.35      100.7801       100.7801       64.290755    
   1890000   0.8441384     -1.2436332      1.266206       0.022572746    1.0054376      652966.78      100.77956      100.77956      64.290408    
   1900000   0.84484234    -1.2468767      1.2672619      0.020385187    1.0266212      652551.35      100.75818      100.75818      64.276771    
   1910000   0.84615662    -1.2438055      1.2692333      0.02542777     1.0035675      652846.49      100.77337      100.77337      64.28646     
   1920000   0.8445663     -1.2439901      1.2668478      0.022857691    0.98824441     652986.68      100.78058      100.78058      64.291061    
   1930000   0.84379406    -1.242418       1.2656894      0.023271469    1.0076687      652886.57      100.77543      100.77543      64.287775    
   1940000   0.84482725    -1.245415       1.2672392      0.021824191    1.0079203      652669.61      100.76427      100.76427      64.280654    
   1950000   0.84557233    -1.2450332      1.2683568      0.023323657    1.0015094      652661.54      100.76385      100.76385      64.280389    
   1960000   0.84571248    -1.2442482      1.2685671      0.024318893    1.0024085      652947.84      100.77858      100.77858      64.289787    
   1970000   0.84588807    -1.2461493      1.2688305      0.022681154    1.000647       652615.8       100.7615       100.7615       64.278887    
   1980000   0.84531114    -1.2435916      1.2679651      0.024373473    1.0138981      652746.77      100.76824      100.76824      64.283187    
   1990000   0.84511264    -1.2425205      1.2676673      0.025146798    1.0016726      653040.04      100.78333      100.78333      64.292812    
   2000000   0.84557685    -1.2435037      1.2683636      0.024859945    1.0015525      652818.35      100.77192      100.77192      64.285536    
   2010000   0.84470855    -1.2457703      1.2670612      0.02129089     1.008851       652782.11      100.77006      100.77006      64.284347    
   2020000   0.84341294    -1.2457036      1.2651178      0.019414148    0.99327025     652795.06      100.77072      100.77072      64.284772    
   2030000   0.8440536     -1.2429614      1.2660788      0.023117353    0.99979148     652767.45      100.7693       100.7693       64.283865    
   2040000   0.84499871    -1.2433426      1.2674964      0.024153766    1.0237213      652798.61      100.77091      100.77091      64.284888    
   2050000   0.8451463     -1.2444995      1.2677178      0.023218289    0.99580384     652800.01      100.77098      100.77098      64.284934    
   2060000   0.84409845    -1.2448317      1.266146       0.021314323    1.0098774      652807.07      100.77134      100.77134      64.285166    
   2070000   0.8449141     -1.246118       1.2673695      0.021251491    0.97924338     652871.49      100.77466      100.77466      64.287281    
   2080000   0.84396584    -1.2464874      1.2659471      0.019459723    0.99990803     652720.7       100.7669       100.7669       64.282331    
   2090000   0.84477512    -1.2490178      1.267161       0.018143174    0.98357995     652614.08      100.76141      100.76141      64.27883     
   2100000   0.84484828    -1.2470919      1.2672708      0.020178867    0.99527838     652779.12      100.7699       100.7699       64.284249    
   2110000   0.84512595    -1.245014       1.2676873      0.022673281    0.99984331     652838.06      100.77294      100.77294      64.286183    
   2120000   0.84394131    -1.2433277      1.2659103      0.02258257     0.99130031     652980.15      100.78025      100.78025      64.290847    
   2130000   0.84535539    -1.2464705      1.2680314      0.021560973    1.0115595      652630.09      100.76223      100.76223      64.279356    
   2140000   0.84389091    -1.2457989      1.2658347      0.020035793    1.0099743      652558.79      100.75856      100.75856      64.277015    
   2150000   0.84524335    -1.2457081      1.2678634      0.022155243    0.98995193     652843.94      100.77324      100.77324      64.286376    
   2160000   0.84520023    -1.2418398      1.2677987      0.025958918    0.98909014     653192.78      100.79118      100.79118      64.297824    
   2170000   0.84389516    -1.2444999      1.2658411      0.021341145    1.0175865      652730.29      100.76739      100.76739      64.282646    
   2180000   0.84450967    -1.2430073      1.2667629      0.023755515    0.98263069     653179.21      100.79049      100.79049      64.297379    
   2190000   0.84495573    -1.2436651      1.2674319      0.023766846    0.98575599     653053.3       100.78401      100.78401      64.293248    
   2200000   0.84369759    -1.2426072      1.2655447      0.022937546    0.9862626      653237.51      100.79349      100.79349      64.299292    
   2210000   0.84649327    -1.2456376      1.2697383      0.024100657    1.0137889      652641.04      100.7628       100.7628       64.279716    
   2220000   0.84466327    -1.2471667      1.2669932      0.019826508    0.99433457     652780.26      100.76996      100.76996      64.284286    
   2230000   0.84645896    -1.2469707      1.2696868      0.022716104    0.9843324      652744.57      100.76813      100.76813      64.283114    
   2240000   0.84679442    -1.2470944      1.27019        0.023095628    1.0183877      652497.29      100.7554       100.7554       64.274996    
   2250000   0.84389053    -1.2460506      1.2658341      0.019783507    0.99154625     652787.7       100.77034      100.77034      64.28453     
   2260000   0.84509929    -1.2440094      1.2676473      0.023637863    0.99441913     652937.55      100.77805      100.77805      64.289449    
   2270000   0.8441723     -1.2441744      1.2662568      0.022082355    1.0015853      652941.88      100.77828      100.77828      64.289591    
   2280000   0.84482885    -1.2472676      1.2672416      0.019974051    1.0010066      652617.4       100.76158      100.76158      64.27894     
   2290000   0.84505219    -1.2452914      1.2675766      0.022285272    1.0109501      652613.38      100.76137      100.76137      64.278808    
   2300000   0.84458749    -1.2434097      1.2668796      0.023469844    0.98541434     653173.05      100.79017      100.79017      64.297177    
   2310000   0.84424772    -1.2424578      1.2663699      0.023912178    1.0134842      652963.37      100.77938      100.77938      64.290296    
   2320000   0.84404719    -1.2428681      1.2660691      0.02320099     1.0102786      652902.09      100.77623      100.77623      64.288285    
   2330000   0.84651333    -1.2453316      1.2697683      0.024436774    1.0174027      652720.61      100.76689      100.76689      64.282328    
   2340000   0.84560554    -1.2467314      1.2684067      0.021675246    1.0082157      652533.4       100.75726      100.75726      64.276182    
   2350000   0.84534495    -1.2423675      1.2680158      0.025648282    1.0054331      652982.28      100.78036      100.78036      64.290917    
   2360000   0.8454907     -1.244353       1.2682344      0.023881412    0.9883525      652828.9       100.77246      100.77246      64.285883    
   2370000   0.8465947     -1.2457836      1.2698904      0.02410679     0.99361184     652772.28      100.76955      100.76955      64.284024    
   2380000   0.8437421     -1.2459628      1.2656115      0.019648659    0.99628153     652737.89      100.76778      100.76778      64.282895    
   2390000   0.84532405    -1.2438949      1.2679844      0.024089552    0.99610416     652919.52      100.77713      100.77713      64.288857    
   2400000   0.84421435    -1.2457551      1.2663199      0.020564734    0.99398574     652792.97      100.77062      100.77062      64.284703    
   2410000   0.84290189    -1.243566       1.2643512      0.020785235    0.99863562     652842.84      100.77318      100.77318      64.28634     
   2420000   0.84467876    -1.2429054      1.2670165      0.024111098    0.98931098     653061.82      100.78445      100.78445      64.293527    
   2430000   0.84419756    -1.2451535      1.2662947      0.021141138    1.0066991      652717.46      100.76673      100.76673      64.282225    
   2440000   0.84502416    -1.2446469      1.2675346      0.022887687    0.98732553     652994.8       100.781        100.781        64.291328    
   2450000   0.84340727    -1.2452115      1.2651093      0.019897766    0.97661478     652975.92      100.78003      100.78003      64.290708    
   2460000   0.8453167     -1.2472511      1.2679734      0.020722256    1.0384281      652469.28      100.75396      100.75396      64.274076    
   2470000   0.84455611    -1.2468148      1.2668325      0.020017756    1.0142607      652493.02      100.75518      100.75518      64.274856    
   2480000   0.84464504    -1.2461076      1.2669659      0.020858335    0.99745438     652936.7       100.77801      100.77801      64.289421    
   2490000   0.84343962    -1.2447836      1.2651578      0.02037422     1.0150514      652719.93      100.76686      100.76686      64.282306    
   2500000   0.84591544    -1.2460686      1.2688715      0.022802901    1.0110738      652545.47      100.75788      100.75788      64.276578    
   2510000   0.84402372    -1.2470563      1.2660339      0.018977656    1.0136944      652512.37      100.75618      100.75618      64.275491    
   2520000   0.8451495     -1.2473368      1.2677226      0.020385827    1.0151645      652451.52      100.75304      100.75304      64.273493    
   2530000   0.845053      -1.2477211      1.2675778      0.019856723    1.0125801      652601.9       100.76078      100.76078      64.278431    
   2540000   0.8448612     -1.2438662      1.2672901      0.023423995    1.0091515      652768.71      100.76937      100.76937      64.283907    
   2550000   0.84552274    -1.2437424      1.2682825      0.024540029    0.99974088     652919.26      100.77711      100.77711      64.288849    
   2560000   0.84542085    -1.2465223      1.2681296      0.021607327    1.0041707      652581.07      100.75971      100.75971      64.277747    
   2570000   0.84495013    -1.2414207      1.2674235      0.026002862    0.97306957     653297.13      100.79655      100.79655      64.301248    
   2580000   0.8445138     -1.2429022      1.266769       0.023866855    1.0070072      652879.24      100.77505      100.77505      64.287535    
   2590000   0.84579119    -1.238867       1.2686851      0.029818118    0.99074514     653366.5       100.80012      100.80012      64.303524    
   2600000   0.84408892    -1.2445172      1.2661317      0.021614571    0.99192122     652955.55      100.77898      100.77898      64.290039    
   2610000   0.84476059    -1.2458898      1.2671392      0.021249433    0.99868794     652739.12      100.76784      100.76784      64.282936    
   2620000   0.84471717    -1.2440071      1.2670741      0.023066993    0.99660715     652853.09      100.77371      100.77371      64.286677    
   2630000   0.8435634     -1.2428007      1.2653435      0.022542765    0.9976391      653037.55      100.7832       100.7832       64.292731    
   2640000   0.84539373    -1.2477345      1.2680889      0.020354411    0.98146451     652693.32      100.76549      100.76549      64.281432    
   2650000   0.84427253    -1.2476548      1.2664071      0.018752288    1.0087971      652661.52      100.76385      100.76385      64.280388    
   2660000   0.84499986    -1.2443753      1.2674981      0.023122871    0.99680804     652932.47      100.77779      100.77779      64.289282    
   2670000   0.84690964    -1.2471999      1.2703628      0.023162949    1.0046727      652670.09      100.76429      100.76429      64.280669    
   2680000   0.84560756    -1.2442144      1.2684097      0.024195244    0.99315393     652906.75      100.77647      100.77647      64.288438    
   2690000   0.8443278     -1.2452285      1.2664901      0.021261582    0.98140105     652984.42      100.78047      100.78047      64.290987    
   2700000   0.84519633    -1.2444497      1.2677928      0.023343123    1.0065398      652930.84      100.77771      100.77771      64.289229    
   2710000   0.8448039     -1.2454554      1.2672042      0.021748799    1.0012252      652775.69      100.76973      100.76973      64.284136    
   2720000   0.8456519     -1.2450887      1.2684762      0.023387514    1.0166334      652625.27      100.76199      100.76199      64.279198    
   2730000   0.84383265    -1.2491774      1.2657473      0.016569956    1.0054819      652487.03      100.75487      100.75487      64.274659    
   2740000   0.84421928    -1.2466668      1.2663273      0.019660451    0.98600323     652884.49      100.77532      100.77532      64.287707    
   2750000   0.84511222    -1.2474983      1.2676667      0.020168328    1.00688        652634.49      100.76246      100.76246      64.279501    
   2760000   0.84520256    -1.2450334      1.2678022      0.022768808    0.98279644     653144.83      100.78872      100.78872      64.296251    
   2770000   0.84489253    -1.2485144      1.2673371      0.018822715    1.0101378      652539.85      100.75759      100.75759      64.276393    
   2780000   0.8452635     -1.243834       1.2678936      0.024059606    0.97974998     653081.93      100.78548      100.78548      64.294187    
   2790000   0.84578863    -1.2484173      1.2686813      0.020264022    1.0133884      652406.84      100.75074      100.75074      64.272026    
   2800000   0.84378716    -1.2453482      1.2656791      0.020330888    1.0022561      652730.83      100.76742      100.76742      64.282663    
   2810000   0.84606039    -1.2475973      1.2690889      0.021491659    0.9992612      652751.87      100.7685       100.7685       64.283354    
   2820000   0.84550478    -1.2476247      1.2682555      0.020630847    1.0034609      652671.89      100.76439      100.76439      64.280729    
   2830000   0.84490375    -1.2458874      1.267354       0.021466582    1.0031148      652818.66      100.77194      100.77194      64.285546    
   2840000   0.84506008    -1.2458836      1.2675885      0.021704841    0.99427756     652891.85      100.7757       100.7757       64.287949    
   2850000   0.8452476     -1.2479714      1.2678698      0.019898371    0.97633676     652898.59      100.77605      100.77605      64.28817     
   2860000   0.84513598    -1.2480967      1.2677023      0.019605575    1.0199509      652493.17      100.75519      100.75519      64.274861    
   2870000   0.84533964    -1.2461597      1.2680078      0.021848113    0.98403879     652878.84      100.77503      100.77503      64.287522    
   2880000   0.8436839     -1.244355       1.2655242      0.021169148    1.0092362      652834.57      100.77276      100.77276      64.286069    
   2890000   0.84490813    -1.2486789      1.2673605      0.018681648    0.99223151     652649.14      100.76321      100.76321      64.279982    
   2900000   0.84420084    -1.246178       1.2662996      0.020121651    0.98559259     652851.91      100.77365      100.77365      64.286638    
   2910000   0.84488801    -1.2436002      1.2673304      0.023730165    1.0093571      652897.19      100.77598      100.77598      64.288124    
   2920000   0.8443165     -1.2458429      1.2664731      0.020630173    1.0214523      652436.78      100.75228      100.75228      64.273009    
   2930000   0.84603705    -1.2480207      1.2690539      0.021033211    0.98597054     652759.72      100.7689       100.7689       64.283612    
   2940000   0.84463704    -1.2472938      1.2669539      0.01966006     1.0115574      652701.92      100.76593      100.76593      64.281714    
   2950000   0.84533264    -1.2482719      1.2679973      0.019725371    1.0052412      652588.43      100.76009      100.76009      64.277988    
   2960000   0.84438637    -1.2438781      1.2665779      0.022699845    0.98735595     653189.68      100.79102      100.79102      64.297723    
   2970000   0.84456857    -1.247016       1.2668512      0.019835205    0.99653927     652703.07      100.76599      100.76599      64.281752    
   2980000   0.84472217    -1.2466863      1.2670816      0.020395319    0.99810124     652792.77      100.77061      100.77061      64.284697    
   2990000   0.84536035    -1.246573       1.2680389      0.021465894    1.0123042      652706.28      100.76615      100.76615      64.281857    
   3000000   0.84586487    -1.2460959      1.2687956      0.022699774    1.0025517      652754.76      100.76865      100.76865      64.283449    
   3010000   0.84552799    -1.2454155      1.2682903      0.022874855    1.0046804      652851.14      100.77361      100.77361      64.286613    
   3020000   0.8455874     -1.2467493      1.2683794      0.021630164    0.98340987     652939.11      100.77813      100.77813      64.2895      
   3030000   0.84483509    -1.2484121      1.267251       0.018838838    0.99086905     652590.75      100.76021      100.76021      64.278065    
   3040000   0.8450647     -1.2443861      1.2675954      0.023209297    0.99459072     652948.26      100.77861      100.77861      64.2898      
   3050000   0.84399717    -1.2427417      1.2659941      0.02325241     1.0045596      653027.42      100.78268      100.78268      64.292398    
   3060000   0.84495392    -1.2473152      1.2674292      0.020113971    1.0108109      652573.65      100.75933      100.75933      64.277503    
   3070000   0.84476678    -1.2480041      1.2671485      0.019144448    0.99474467     652689.16      100.76527      100.76527      64.281296    
   3080000   0.84361283    -1.2447346      1.2654176      0.020682966    1.0124793      652809.98      100.77149      100.77149      64.285261    
   3090000   0.84507228    -1.245261       1.2676068      0.022345736    1.0271436      652568.67      100.75907      100.75907      64.27734     
   3100000   0.84628867    -1.2472307      1.2694313      0.022200636    0.99167853     652739.87      100.76788      100.76788      64.28296     
   3110000   0.84453707    -1.2460043      1.266804       0.020799667    0.99786253     652986.76      100.78059      100.78059      64.291064    
   3120000   0.84712923    -1.2461993      1.2706922      0.024492899    0.98573116     652961.43      100.77928      100.77928      64.290232    
   3130000   0.84400801    -1.2482656      1.2660104      0.017744785    0.99839332     652586.7       100.76         100.76         64.277932    
   3140000   0.84417438    -1.2474064      1.2662599      0.018853527    1.0003048      652775.83      100.76973      100.76973      64.28414     
   3150000   0.84567576    -1.2468818      1.268512       0.021630156    0.98608292     652793.08      100.77062      100.77062      64.284707    
   3160000   0.84435457    -1.2481902      1.2665302      0.01834004     0.98769164     652859.88      100.77406      100.77406      64.286899    
   3170000   0.84569433    -1.248251       1.2685398      0.020288845    0.97902458     652838.24      100.77295      100.77295      64.286189    
   3180000   0.8454916     -1.2468088      1.2682357      0.021426915    1.0013653      652724.84      100.76711      100.76711      64.282467    
   3190000   0.84464078    -1.2488523      1.2669595      0.018107199    1.0039363      652475.38      100.75427      100.75427      64.274277    
   3200000   0.84565474    -1.2494361      1.2684805      0.01904437     0.98996047     652634.82      100.76248      100.76248      64.279512    
   3210000   0.84524812    -1.2468836      1.2678705      0.020986948    1.0163461      652625.7       100.76201      100.76201      64.279212    
   3220000   0.84318477    -1.2498379      1.2647755      0.01493755     0.99863592     652373.73      100.74904      100.74904      64.270939    
   3230000   0.84515213    -1.2486141      1.2677265      0.019112415    0.9900936      652752.51      100.76853      100.76853      64.283375    
   3240000   0.84378757    -1.2464487      1.2656797      0.01923096     1.0038809      652719.57      100.76684      100.76684      64.282294    
   3250000   0.84521076    -1.2470353      1.2678145      0.020779164    0.99623033     652532.56      100.75721      100.75721      64.276154    
   3260000   0.84412296    -1.2471325      1.2661828      0.019050266    1.0170123      652575.31      100.75941      100.75941      64.277558    
   3270000   0.84533786    -1.2479377      1.2680051      0.020067443    0.98770116     652727.06      100.76722      100.76722      64.28254     
   3280000   0.84482139    -1.2431983      1.2672304      0.024032132    0.98906201     653119.34      100.78741      100.78741      64.295415    
   3290000   0.84565456    -1.2472419      1.2684802      0.02123828     1.0062514      652681.57      100.76488      100.76488      64.281046    
   3300000   0.84561915    -1.2480533      1.2684271      0.020373799    0.99863745     652702.04      100.76594      100.76594      64.281718    
   3310000   0.84486356    -1.2478833      1.2672937      0.019410384    1.0018575      652565.59      100.75891      100.75891      64.277238    
   3320000   0.84757295    -1.2472232      1.2713578      0.024134559    1.0144587      652610.33      100.76122      100.76122      64.278707    
   3330000   0.84482912    -1.2459537      1.267242       0.021288353    1.0121375      652755.09      100.76867      100.76867      64.28346     
   3340000   0.84462451    -1.2473417      1.2669351      0.019593415    0.98992424     652665.67      100.76407      100.76407      64.280524    
   3350000   0.84404547    -1.2465023      1.2660666      0.019564267    1.016659       652611.92      100.7613       100.7613       64.278759    
   3360000   0.84390756    -1.2480252      1.2658597      0.017834491    0.99563725     652575.5       100.75942      100.75942      64.277564    
   3370000   0.84662508    -1.2470096      1.269936       0.022926399    1.0120705      652466.08      100.75379      100.75379      64.273971    
   3380000   0.84503286    -1.2475778      1.2675476      0.019969786    1.0087033      652623.59      100.7619       100.7619       64.279143    
   3390000   0.84493931    -1.2485297      1.2674073      0.018877627    1.0044234      652615.41      100.76148      100.76148      64.278874    
   3400000   0.84616022    -1.2473858      1.2692387      0.021852855    0.99174237     652803.28      100.77115      100.77115      64.285042    
   3410000   0.84437646    -1.2471397      1.266563       0.019423359    1.0042708      652519.72      100.75655      100.75655      64.275733    
   3420000   0.84573555    -1.2467462      1.2686017      0.021855441    1.0198585      652489.33      100.75499      100.75499      64.274735    
   3430000   0.84495773    -1.2461829      1.2674349      0.021252006    0.98435197     652900.3       100.77614      100.77614      64.288226    
   3440000   0.8439123     -1.247392       1.2658668      0.018474772    1.0017641      652498.88      100.75548      100.75548      64.275048    
   3450000   0.84559995    -1.24632        1.2683983      0.022078262    0.98726129     652910.42      100.77666      100.77666      64.288558    
   3460000   0.84365413    -1.2496244      1.2654795      0.015855105    0.99483563     652590.63      100.7602       100.7602       64.27806     
   3470000   0.84657984    -1.2470404      1.2698681      0.022827718    0.98686379     652810.75      100.77153      100.77153      64.285287    
   3480000   0.84566202    -1.2481471      1.2684914      0.020344234    1.0044234      652703.01      100.76599      100.76599      64.28175     
   3490000   0.84485003    -1.2456509      1.2672734      0.02162252     0.99044339     652803         100.77113      100.77113      64.285033    
   3500000   0.84628471    -1.2491681      1.2694254      0.020257308    0.98010102     652721.09      100.76692      100.76692      64.282344    
   3510000   0.84482107    -1.246366       1.26723        0.020863927    1.0128298      652696.71      100.76566      100.76566      64.281543    
   3520000   0.84571734    -1.247344       1.2685744      0.021230306    1.0011665      652724.03      100.76707      100.76707      64.28244     
   3530000   0.84472249    -1.2467127      1.2670821      0.020369363    0.99171168     652826.05      100.77232      100.77232      64.285789    
   3540000   0.84718556    -1.246014       1.2707767      0.02476269     1.0079959      652755.52      100.76869      100.76869      64.283474    
   3550000   0.84794613    -1.2501813      1.2719175      0.021736241    0.99283938     652576.33      100.75947      100.75947      64.277591    
   3560000   0.84417341    -1.246278       1.2662585      0.019980497    0.9887598      652805.34      100.77125      100.77125      64.285109    
   3570000   0.84566089    -1.2460798      1.2684897      0.022409909    1.0105712      652671.88      100.76438      100.76438      64.280728    
   3580000   0.84442349    -1.246791       1.2666336      0.019842537    0.98795692     652918.79      100.77709      100.77709      64.288833    
   3590000   0.84373645    -1.2455698      1.265603       0.020033234    0.99379014     652811.81      100.77159      100.77159      64.285322    
   3600000   0.84517433    -1.251179       1.2677598      0.01658089     1.0030668      652359.47      100.7483       100.7483       64.27047     
   3610000   0.84486843    -1.2451277      1.267301       0.022173286    1.0081888      652734.74      100.76762      100.76762      64.282792    
   3620000   0.84425811    -1.2451283      1.2663855      0.021257237    0.9887441      652970.94      100.77977      100.77977      64.290545    
   3630000   0.84639994    -1.2463817      1.2695983      0.023216577    0.98631993     652962.24      100.77933      100.77933      64.290259    
   3640000   0.84377953    -1.2462839      1.2656676      0.019383782    1.0020493      652712.16      100.76646      100.76646      64.28205     
   3650000   0.84472493    -1.2476432      1.2670857      0.019442527    1.0083912      652688.43      100.76524      100.76524      64.281271    
   3660000   0.84542549    -1.2457992      1.2681366      0.022337406    0.98754573     653004.97      100.78152      100.78152      64.291662    
   3670000   0.84356719    -1.2457982      1.2653491      0.019550932    1.0069979      652772.93      100.76958      100.76958      64.284045    
   3680000   0.8434606     -1.2472691      1.2651892      0.017920163    0.99103505     652780.71      100.76998      100.76998      64.284301    
   3690000   0.8450548     -1.2465578      1.2675805      0.021022748    1.0146117      652591.72      100.76026      100.76026      64.278096    
   3700000   0.84684041    -1.2483272      1.270259       0.021931754    1.0142865      652565.11      100.75889      100.75889      64.277223    
   3710000   0.84487613    -1.2477998      1.2673125      0.019512725    1.0075266      652711.96      100.76645      100.76645      64.282044    
   3720000   0.8460663     -1.2507769      1.2690978      0.018320933    0.97084327     652534.23      100.7573       100.7573       64.276209    
   3730000   0.84455329    -1.2454957      1.2668283      0.021332607    0.98888366     652867.49      100.77445      100.77445      64.287149    
   3740000   0.84472816    -1.247582       1.2670906      0.019508532    0.99281922     652794.02      100.77067      100.77067      64.284738    
   3750000   0.84479978    -1.2452489      1.267198       0.021949108    1.0006769      652760.78      100.76896      100.76896      64.283646    
   3760000   0.84476812    -1.2502192      1.2671505      0.016931299    1.0067827      652443.76      100.75264      100.75264      64.273238    
   3770000   0.84472043    -1.2502071      1.267079       0.016871881    0.99148375     652582.37      100.75978      100.75978      64.277789    
   3780000   0.84538583    -1.2517608      1.2680771      0.01631626     1.0161499      652210.52      100.74064      100.74064      64.265578    
   3790000   0.84478373    -1.2484665      1.2671739      0.018707489    0.98963163     652716.18      100.76666      100.76666      64.282182    
   3800000   0.84403108    -1.2468805      1.266045       0.019164418    0.99487949     652854.37      100.77377      100.77377      64.286719    
   3810000   0.84374492    -1.2460161      1.2656157      0.019599622    1.0178843      652623.14      100.76188      100.76188      64.279128    
   3820000   0.8453318     -1.2438057      1.267996       0.024190372    0.99917137     652947.82      100.77858      100.77858      64.289786    
   3830000   0.84518052    -1.2480907      1.2677691      0.019678395    0.99737452     652779.66      100.76993      100.76993      64.284266    
   3840000   0.84612598    -1.2485724      1.2691873      0.020614883    1.0040201      652513.68      100.75624      100.75624      64.275534    
   3850000   0.84550065    -1.2453976      1.2682493      0.022851706    0.99134943     652985.96      100.78055      100.78055      64.291038    
   3860000   0.84513759    -1.2458789      1.2677047      0.021825785    0.98513141     652984.46      100.78047      100.78047      64.290988    
   3870000   0.84550895    -1.2462233      1.2682618      0.022038442    1.0027901      652698.15      100.76574      100.76574      64.28159     
   3880000   0.84495126    -1.2456217      1.2674252      0.021803579    0.99151772     652758.07      100.76882      100.76882      64.283558    
   3890000   0.84427       -1.2497984      1.2664033      0.016604986    1.0179112      652368.43      100.74877      100.74877      64.270765    
   3900000   0.84419991    -1.2431865      1.2662982      0.023111755    1.0058848      652879.56      100.77507      100.77507      64.287545    
   3910000   0.846112      -1.2499529      1.2691663      0.01921347     0.99241462     652542.26      100.75771      100.75771      64.276472    
   3920000   0.84486897    -1.2501151      1.2673018      0.017186728    0.98599781     652514.42      100.75628      100.75628      64.275558    
   3930000   0.84510978    -1.24688        1.267663       0.020783058    1.0063774      652536.68      100.75743      100.75743      64.276289    
   3940000   0.84338609    -1.2478525      1.2650775      0.017224975    0.98828433     652614.63      100.76144      100.76144      64.278848    
   3950000   0.84323308    -1.248799       1.264848       0.01604893     1.0011227      652564.03      100.75883      100.75883      64.277187    
   3960000   0.84528372    -1.2515134      1.2679239      0.016410566    0.99462401     652309.83      100.74575      100.74575      64.26884     
   3970000   0.84518552    -1.2498547      1.2677766      0.017921912    1.0002004      652517.55      100.75644      100.75644      64.275661    
   3980000   0.84437524    -1.2478776      1.2665612      0.018683588    0.998768       652622         100.76182      100.76182      64.279091    
   3990000   0.84471514    -1.247697       1.2670711      0.019374103    1.0177764      652521.64      100.75665      100.75665      64.275795    
   4000000   0.8444959     -1.2449894      1.2667422      0.021752812    0.99870152     652873.97      100.77478      100.77478      64.287362    
   4010000   0.84419286    -1.248204       1.2662876      0.018083612    0.99167923     652608.62      100.76113      100.76113      64.278651    
   4020000   0.84493325    -1.2500193      1.2673982      0.017378943    1.0057789      652512.72      100.75619      100.75619      64.275503    
   4030000   0.84341666    -1.2475605      1.2651233      0.017562819    0.99223528     652792.1       100.77057      100.77057      64.284675    
   4040000   0.84588909    -1.24747        1.268832       0.021361972    1.0171797      652576.86      100.75949      100.75949      64.277608    
   4050000   0.84636987    -1.2469838      1.2695532      0.02256935     0.99819681     652777.99      100.76984      100.76984      64.284211    
   4060000   0.84269254    -1.2502123      1.2640372      0.013824867    1.0037169      652316.15      100.74607      100.74607      64.269047    
   4070000   0.84427971    -1.2461541      1.2664179      0.02026378     0.98853026     652925.23      100.77742      100.77742      64.289045    
   4080000   0.84402583    -1.2458295      1.2660371      0.020207646    1.0021521      652817.37      100.77187      100.77187      64.285504    
   4090000   0.8452354     -1.2505533      1.2678514      0.017298114    0.99763805     652461.58      100.75356      100.75356      64.273824    
   4100000   0.84428108    -1.2488071      1.26642        0.017612864    0.99302998     652673.35      100.76446      100.76446      64.280776    
   4110000   0.84621372    -1.2482141      1.2693189      0.021104866    1.0028583      652553.89      100.75831      100.75831      64.276854    
   4120000   0.84523676    -1.2482187      1.2678535      0.019634769    1.0129473      652496.05      100.75533      100.75533      64.274955    
   4130000   0.84385584    -1.2453266      1.2657821      0.020455532    0.99099701     653011.11      100.78184      100.78184      64.291863    
   4140000   0.84464468    -1.2466213      1.2669654      0.02034405     0.99793449     652761.72      100.76901      100.76901      64.283677    
   4150000   0.84484086    -1.2483754      1.2672596      0.018884211    1.008585       652507.97      100.75595      100.75595      64.275346    
   4160000   0.84454371    -1.2488166      1.2668139      0.017997287    0.99209808     652585.48      100.75994      100.75994      64.277891    
   4170000   0.84464134    -1.2469988      1.2669604      0.019961541    1.000418       652699.2       100.76579      100.76579      64.281625    
   4180000   0.8446112     -1.247608       1.2669151      0.019307124    1.0021095      652645.3       100.76302      100.76302      64.279856    
   4190000   0.84647939    -1.2478225      1.2697174      0.021894947    0.9961991      652731.26      100.76744      100.76744      64.282677    
   4200000   0.84501455    -1.2444967      1.2675202      0.023023513    1.0045124      652849.76      100.77354      100.77354      64.286567    
   4210000   0.8462565     -1.2462946      1.2693831      0.023088489    1.0004133      652843         100.77319      100.77319      64.286346    
   4220000   0.84569014    -1.2489477      1.2685335      0.01958589     1.0010457      652659.65      100.76376      100.76376      64.280327    
   4230000   0.84479822    -1.2469843      1.2671957      0.020211356    1.0045767      652619.1       100.76167      100.76167      64.278995    
   4240000   0.84594934    -1.2486914      1.2689224      0.020230915    1.0075888      652446.82      100.7528       100.7528       64.273339    
   4250000   0.84596065    -1.2450739      1.2689393      0.023865388    1.0041754      652896.2       100.77593      100.77593      64.288092    
   4260000   0.84462136    -1.2448542      1.2669304      0.022076147    0.99311951     652991.16      100.78081      100.78081      64.291208    
   4270000   0.8460005     -1.2464479      1.2689991      0.022551231    0.99478687     652829.27      100.77248      100.77248      64.285895    
   4280000   0.84450111    -1.2476721      1.26675        0.019077872    0.99473851     652833.85      100.77272      100.77272      64.286045    
   4290000   0.84379552    -1.2448035      1.2656916      0.020888161    1.009664       652686.53      100.76514      100.76514      64.281209    
   4300000   0.84367689    -1.2484697      1.2655137      0.017044014    0.99129379     652691.03      100.76537      100.76537      64.281357    
   4310000   0.84285197    -1.244165       1.2642763      0.020111273    0.99702171     652930.15      100.77767      100.77767      64.289206    
   4320000   0.84461809    -1.2454033      1.2669255      0.021522168    1.0178733      652622.4       100.76184      100.76184      64.279104    
   4330000   0.84546941    -1.2463906      1.2682025      0.021811896    1.0010175      652821.85      100.7721       100.7721       64.285651    
   4340000   0.84473259    -1.2492695      1.2670972      0.017827775    1.0056191      652587.67      100.76005      100.76005      64.277963    
   4350000   0.844508      -1.2474241      1.2667603      0.019336241    0.99546131     652714.94      100.7666       100.7666       64.282142    
   4360000   0.84419324    -1.2478019      1.2662882      0.018486351    0.98913429     652755.84      100.76871      100.76871      64.283484    
   4370000   0.84346824    -1.2485851      1.2652007      0.016615637    0.99142262     652756.13      100.76872      100.76872      64.283494    
   4380000   0.84584469    -1.2503985      1.2687654      0.018366848    0.99508766     652546.11      100.75791      100.75791      64.276599    
   4390000   0.846398      -1.247479       1.2695953      0.022116361    0.99243888     652788         100.77036      100.77036      64.28454     
   4400000   0.84419197    -1.2474761      1.2662863      0.018810207    1.0140999      652467.32      100.75386      100.75386      64.274012    
   4410000   0.84583557    -1.2465439      1.2687517      0.022207753    0.98881084     652964.69      100.77945      100.77945      64.29034     
   4420000   0.84497682    -1.245941       1.2674636      0.021522589    1.0081859      652848.24      100.77346      100.77346      64.286517    
   4430000   0.84447748    -1.2475839      1.2667146      0.019130694    0.9953445      652660.17      100.76378      100.76378      64.280344    
   4440000   0.84526931    -1.2469549      1.2679023      0.020947363    1.0009327      652769.49      100.76941      100.76941      64.283933    
   4450000   0.84583432    -1.2498153      1.2687498      0.018934547    0.98412221     652642.51      100.76287      100.76287      64.279764    
   4460000   0.84531297    -1.2495288      1.2679678      0.018439009    1.0133783      652330.78      100.74683      100.74683      64.269528    
   4470000   0.84416982    -1.2458648      1.2662531      0.02038832     1.0143449      652715.78      100.76664      100.76664      64.282169    
   4480000   0.84395627    -1.2449359      1.2659328      0.020996897    0.9975008      652838.32      100.77295      100.77295      64.286192    
   4490000   0.84528849    -1.2491581      1.2679311      0.018772976    1.0042529      652510.5       100.75608      100.75608      64.27543     
   4500000   0.84424393    -1.249223       1.2663642      0.017141194    0.98751131     652629.01      100.76218      100.76218      64.279321    
   4510000   0.84637142    -1.2446765      1.2695555      0.024878944    1.004603       652953.68      100.77888      100.77888      64.289978    
   4520000   0.84373114    -1.2436222      1.2655951      0.02197286     0.99206554     653052.42      100.78396      100.78396      64.293219    
   4530000   0.84549167    -1.2475499      1.2682358      0.020685976    0.98682421     652861.06      100.77412      100.77412      64.286938    
   4540000   0.84619238    -1.24669        1.2692869      0.022596879    0.99994187     652774.57      100.76967      100.76967      64.284099    
   4550000   0.84498312    -1.2436206      1.267473       0.023852461    1.0075735      652876.39      100.77491      100.77491      64.287441    
   4560000   0.84444777    -1.2479039      1.26667        0.018766117    0.99532607     652830.89      100.77257      100.77257      64.285948    
   4570000   0.84545314    -1.2444692      1.2681781      0.02370888     1.0186213      652742.88      100.76804      100.76804      64.283059    
   4580000   0.84542098    -1.2488199      1.2681298      0.019309899    0.98836009     652631.21      100.76229      100.76229      64.279393    
   4590000   0.84488265    -1.2452967      1.2673223      0.022025611    0.99804353     652883.69      100.77528      100.77528      64.287681    
   4600000   0.8437392     -1.2466104      1.2656071      0.01899679     1.0156735      652604.22      100.7609       100.7609       64.278507    
   4610000   0.8444118     -1.247417       1.266616       0.019199       0.99084848     652864.62      100.7743       100.7743       64.287055    
   4620000   0.84626659    -1.2442155      1.2693982      0.025182683    1.0065037      652893.04      100.77576      100.77576      64.287988    
   4630000   0.84308714    -1.2444472      1.2646291      0.020181914    0.98540247     652987.92      100.78065      100.78065      64.291102    
   4640000   0.84563227    -1.2465362      1.2684468      0.021910588    1.0073692      652628.52      100.76215      100.76215      64.279305    
   4650000   0.84695082    -1.2481643      1.2704246      0.022260278    0.99754774     652686.94      100.76516      100.76516      64.281223    
   4660000   0.84586956    -1.2504235      1.2688027      0.018379224    0.99642768     652405.06      100.75065      100.75065      64.271967    
   4670000   0.8453753     -1.2460695      1.2680613      0.021991822    0.99698664     652834.77      100.77277      100.77277      64.286075    
   4680000   0.84637872    -1.2462257      1.2695664      0.023340706    1.0025362      652757.4       100.76879      100.76879      64.283536    
   4690000   0.84573266    -1.245979       1.2685973      0.02261836     0.99590118     652779.96      100.76995      100.76995      64.284276    
   4700000   0.84558823    -1.2471248      1.2683807      0.021255917    0.9992853      652715.97      100.76665      100.76665      64.282176    
   4710000   0.8466784     -1.2471393      1.2700159      0.022876663    1.0276006      652433.67      100.75212      100.75212      64.272907    
   4720000   0.84561247    -1.2477321      1.268417       0.020684953    0.99430054     652683.35      100.76497      100.76497      64.281105    
   4730000   0.84422998    -1.2502725      1.2663433      0.016070825    0.97422431     652753.37      100.76858      100.76858      64.283403    
   4740000   0.84499533    -1.2445267      1.2674913      0.022964592    1.0011656      652989.09      100.78071      100.78071      64.29114     
   4750000   0.84492353    -1.2452756      1.2673836      0.022108014    0.99137868     652938.39      100.7781       100.7781       64.289476    
   4760000   0.84589025    -1.2512457      1.2688337      0.01758803     0.99992449     652389.95      100.74987      100.74987      64.271471    
   4770000   0.84500643    -1.2463017      1.267508       0.021206267    0.99279337     652900.19      100.77613      100.77613      64.288223    
   4780000   0.8468452     -1.249194       1.2702661      0.021072151    0.99384414     652528.58      100.75701      100.75701      64.276023    
   4790000   0.84483436    -1.2459685      1.2672499      0.021281417    1.0045845      652707.54      100.76622      100.76622      64.281899    
   4800000   0.84349715    -1.2475498      1.2652441      0.017694282    0.99491297     652743.9       100.76809      100.76809      64.283093    
   4810000   0.84530292    -1.2463231      1.2679527      0.021629587    0.99963353     652873.9       100.77478      100.77478      64.28736     
   4820000   0.84564368    -1.2470751      1.2684639      0.021388769    0.97559914     652933.84      100.77786      100.77786      64.289327    
   4830000   0.8438401     -1.2460621      1.2657585      0.019696409    1.0014961      652679.54      100.76478      100.76478      64.28098     
   4840000   0.84439811    -1.2465455      1.2665955      0.020050013    0.98343065     652793.07      100.77062      100.77062      64.284707    
   4850000   0.84486915    -1.2518959      1.2673021      0.015406199    0.98723953     652314.96      100.74601      100.74601      64.269008    
   4860000   0.84396358    -1.2492366      1.2659437      0.016707157    0.99504173     652511.13      100.75611      100.75611      64.27545     
   4870000   0.84624861    -1.2446153      1.2693713      0.024755984    0.99292327     653007.76      100.78167      100.78167      64.291753    
   4880000   0.84366408    -1.246104       1.2654945      0.019390466    0.9973814      652793.23      100.77063      100.77063      64.284712    
   4890000   0.84579327    -1.2450644      1.2686883      0.023623888    0.99592002     652879.59      100.77507      100.77507      64.287547    
   4900000   0.84517519    -1.2493321      1.2677611      0.018429057    0.98917152     652417.32      100.75128      100.75128      64.27237     
   4910000   0.84485386    -1.2440621      1.2672791      0.023217041    1.0150102      652728.04      100.76727      100.76727      64.282572    
   4920000   0.84561017    -1.2452014      1.2684136      0.023212205    1.0013421      652832.63      100.77266      100.77266      64.286005    
   4930000   0.84662346    -1.2488059      1.2699335      0.021127687    0.99233306     652683.78      100.765        100.765        64.281119    
   4940000   0.84479375    -1.2474255      1.267189       0.019763484    1.0007458      652581.83      100.75975      100.75975      64.277772    
   4950000   0.84495185    -1.2468776      1.2674261      0.020548527    1.0099148      652629.26      100.76219      100.76219      64.279329    
   4960000   0.84437439    -1.2481338      1.2665599      0.018426129    1.0003593      652553.09      100.75827      100.75827      64.276828    
   4970000   0.84570891    -1.2477063      1.2685617      0.020855435    0.98143344     652804.67      100.77122      100.77122      64.285087    
   4980000   0.84463033    -1.2471535      1.2669438      0.01979039     0.99593489     652714.8       100.76659      100.76659      64.282137    
   4990000   0.84449671    -1.2485791      1.2667434      0.018164265    1.0025635      652604.82      100.76093      100.76093      64.278526    
   5000000   0.84394857    -1.243757       1.2659212      0.022164229    0.9959066      653049.49      100.78381      100.78381      64.293123    
   5010000   0.84456598    -1.2469918      1.2668473      0.019855514    0.96895285     653040.2       100.78334      100.78334      64.292818    
   5020000   0.84505885    -1.2462772      1.2675866      0.021309462    0.99673552     652752.83      100.76855      100.76855      64.283385    
   5030000   0.84509507    -1.2465593      1.267641       0.021081643    0.98618191     652720.94      100.76691      100.76691      64.282339    
   5040000   0.84631357    -1.2454325      1.2694687      0.024036165    0.99980939     652858.43      100.77398      100.77398      64.286852    
   5050000   0.8436952     -1.2477805      1.2655411      0.017760676    0.99971283     652615.28      100.76147      100.76147      64.27887     
   5060000   0.8455902     -1.2477774      1.2683836      0.02060622     0.99997083     652581.47      100.75973      100.75973      64.27776     
   5070000   0.84435929    -1.2468061      1.2665373      0.019731134    0.98326314     652881.05      100.77515      100.77515      64.287594    
   5080000   0.84532187    -1.246942       1.2679812      0.021039205    1.0061557      652658.88      100.76372      100.76372      64.280301    
   5090000   0.84562732    -1.2460777      1.2684393      0.022361577    0.99783976     652737.2       100.76775      100.76775      64.282872    
   5100000   0.84528164    -1.2482663      1.2679208      0.019654524    1.0045078      652579.37      100.75962      100.75962      64.277691    
   5110000   0.84464287    -1.2487411      1.2669627      0.018221513    0.98982104     652597.65      100.76056      100.76056      64.278291    
   5120000   0.8464457     -1.2493175      1.2696669      0.020349418    1.0117508      652510.35      100.75607      100.75607      64.275425    
   5130000   0.84574277    -1.246677       1.2686125      0.021935544    0.98962021     652863.48      100.77424      100.77424      64.287018    
   5140000   0.84513472    -1.2448676      1.2677004      0.022832851    0.98902808     652922.44      100.77728      100.77728      64.288953    
   5150000   0.84538901    -1.2472448      1.2680819      0.020837048    1.0046844      652665.89      100.76408      100.76408      64.280532    
   5160000   0.84389717    -1.2475852      1.2658441      0.018258922    0.9939433      652777.53      100.76982      100.76982      64.284196    
   5170000   0.84577397    -1.2460982      1.2686593      0.022561072    0.98604723     652751.06      100.76846      100.76846      64.283327    
   5180000   0.8454401     -1.2490212      1.2681585      0.019137314    1.0058726      652572.3       100.75926      100.75926      64.277459    
   5190000   0.8439291     -1.2453553      1.265892       0.020536664    0.98057581     652984.71      100.78048      100.78048      64.290996    
   5200000   0.8465429     -1.2501077      1.2698127      0.019705032    0.98984315     652646.54      100.76308      100.76308      64.279896    
   5210000   0.84510153    -1.2452897      1.2676506      0.022360916    0.9894189      652968.72      100.77966      100.77966      64.290472    
   5220000   0.84425277    -1.2465297      1.2663775      0.019847815    1.0100279      652622.38      100.76184      100.76184      64.279103    
   5230000   0.84554789    -1.247372       1.2683202      0.020948206    1.0029283      652660.84      100.76382      100.76382      64.280366    
   5240000   0.84431248    -1.2484154      1.2664671      0.01805164     0.99909208     652681.48      100.76488      100.76488      64.281043    
   5250000   0.8460406     -1.2479125      1.2690592      0.021146711    1.0051255      652605.44      100.76097      100.76097      64.278547    
   5260000   0.84447236    -1.2445826      1.2667069      0.022124241    0.9878782      653024.79      100.78254      100.78254      64.292312    
   5270000   0.84451289    -1.2470728      1.2667677      0.019694886    0.9967986      652791.84      100.77056      100.77056      64.284666    
   5280000   0.84397568    -1.2494564      1.2659619      0.016505443    0.97717748     652636.95      100.76259      100.76259      64.279581    
   5290000   0.8469914     -1.2490058      1.2704854      0.021479645    1.0077724      652476.16      100.75431      100.75431      64.274302    
   5300000   0.84556406    -1.2477465      1.2683444      0.020597915    0.9894649      652750.73      100.76844      100.76844      64.283317    
   5310000   0.84355766    -1.2455805      1.2653348      0.019754363    0.99973839     652756.15      100.76872      100.76872      64.283495    
   5320000   0.84489666    -1.248764       1.2673433      0.018579381    0.99590309     652558.4       100.75854      100.75854      64.277002    
   5330000   0.84532411    -1.2490704      1.2679845      0.018914141    0.989431       652709.25      100.76631      100.76631      64.281955    
   5340000   0.84371763    -1.2483676      1.2655748      0.017207156    0.99083757     652566.91      100.75898      100.75898      64.277282    
   5350000   0.84350177    -1.2481972      1.265251       0.017053835    0.98724509     652772.11      100.76954      100.76954      64.284018    
   5360000   0.84548746    -1.2482681      1.2682295      0.01996144     0.99409186     652673.25      100.76446      100.76446      64.280773    
   5370000   0.84473729    -1.2495984      1.2671043      0.017505848    0.98318898     652652.21      100.76337      100.76337      64.280082    
   5380000   0.84425419    -1.2484361      1.2663796      0.017943523    0.9936384      652594.27      100.76039      100.76039      64.27818     
   5390000   0.84721742    -1.2500228      1.2708245      0.0208017      1.0216597      652331.67      100.74687      100.74687      64.269557    
   5400000   0.84402204    -1.2455895      1.2660314      0.020441867    1.0162088      652750.6       100.76844      100.76844      64.283312    
   5410000   0.84523667    -1.2430758      1.2678533      0.024777527    1.0248859      652817.91      100.7719       100.7719       64.285522    
   5420000   0.84552812    -1.246127       1.2682905      0.022163564    0.99945459     652859.65      100.77405      100.77405      64.286892    
   5430000   0.84470716    -1.2464129      1.2670591      0.020646198    1.0008977      652754.17      100.76862      100.76862      64.28343     
   5440000   0.84426677    -1.2461167      1.2663985      0.020281786    1.0095915      652618.23      100.76162      100.76162      64.278967    
   5450000   0.84505996    -1.2462209      1.2675883      0.021367362    0.99522295     652901.34      100.77619      100.77619      64.28826     
   5460000   0.8456092     -1.2472023      1.2684121      0.021209809    1.0263819      652586.13      100.75997      100.75997      64.277913    
   5470000   0.84558233    -1.2422722      1.2683718      0.026099604    0.99792778     653034.28      100.78303      100.78303      64.292624    
   5480000   0.84429516    -1.2462186      1.2664411      0.020222493    1.0101285      652666.13      100.76409      100.76409      64.280539    
   5490000   0.84586365    -1.2507867      1.2687938      0.018007131    1.0139388      652310.2       100.74577      100.74577      64.268852    
   5500000   0.84453986    -1.2475253      1.2668081      0.01928288     1.0026981      652661.22      100.76384      100.76384      64.280378    
   5510000   0.84399518    -1.2481044      1.2659911      0.01788674     0.98308757     652747.89      100.7683       100.7683       64.283223    
   5520000   0.84728562    -1.2496456      1.2709268      0.021281201    1.0187813      652312.16      100.74587      100.74587      64.268917    
   5530000   0.84625477    -1.2502417      1.2693805      0.019138771    0.99643141     652555.48      100.75839      100.75839      64.276906    
   5540000   0.84529238    -1.2488913      1.2679369      0.01904559     0.99791092     652672.74      100.76443      100.76443      64.280756    
   5550000   0.8434375     -1.248104       1.2651546      0.017050562    1.0050941      652479.33      100.75447      100.75447      64.274406    
   5560000   0.84525511    -1.2494582      1.267881       0.018422835    0.99766417     652535.01      100.75734      100.75734      64.276234    
   5570000   0.84443124    -1.2475648      1.2666452      0.01908044     0.98984142     652751.46      100.76848      100.76848      64.283341    
   5580000   0.84508735    -1.2486348      1.2676294      0.018994567    1.0094562      652461.31      100.75355      100.75355      64.273815    
   5590000   0.84428424    -1.2415179      1.2664247      0.024906833    1.0007959      653064.07      100.78456      100.78456      64.293601    
   5600000   0.84500814    -1.2466381      1.2675106      0.020872404    0.98622147     652764.71      100.76916      100.76916      64.283776    
   5610000   0.84633177    -1.2477134      1.269496       0.021782579    0.99900026     652551.88      100.75821      100.75821      64.276788    
   5620000   0.84289762    -1.2451339      1.2643448      0.019210932    0.98775573     652877.43      100.77496      100.77496      64.287475    
   5630000   0.84571518    -1.2462581      1.2685711      0.022313033    0.99096764     652763.56      100.7691       100.7691       64.283738    
   5640000   0.84546318    -1.2471008      1.2681931      0.021092332    1.0157122      652551.37      100.75818      100.75818      64.276772    
   5650000   0.84453286    -1.2452395      1.2667976      0.021558116    0.9941243      653006.97      100.78163      100.78163      64.291727    
   5660000   0.84680876    -1.2487827      1.2702115      0.021428738    1.0109935      652492.27      100.75514      100.75514      64.274831    
   5670000   0.84541852    -1.2473369      1.2681261      0.02078923     1.0013926      652688.2       100.76522      100.76522      64.281264    
   5680000   0.84483264    -1.248223       1.2672473      0.019024278    0.9976732      652555.58      100.7584       100.7584       64.27691     
   5690000   0.84422481    -1.2504182      1.2663356      0.015917342    0.99567077     652553.27      100.75828      100.75828      64.276834    
   5700000   0.84513052    -1.2474144      1.2676941      0.02027969     0.99204875     652900.47      100.77615      100.77615      64.288232    
   5710000   0.84536525    -1.2436141      1.2680462      0.0244321      1.0114405      653015.86      100.78208      100.78208      64.292019    
   5720000   0.84341328    -1.250197       1.2651183      0.014921243    0.98869805     652580.75      100.75969      100.75969      64.277736    
   5730000   0.8456402     -1.2513587      1.2684587      0.017099988    0.9853904      652529.16      100.75704      100.75704      64.276043    
   5740000   0.844899      -1.2467822      1.2673468      0.020564635    1.0033762      652768.75      100.76937      100.76937      64.283908    
   5750000   0.8455317     -1.2474972      1.2682959      0.020798712    1.0063847      652633.79      100.76242      100.76242      64.279478    
   5760000   0.84642492    -1.2507006      1.2696357      0.018935081    1.0136971      652264.42      100.74341      100.74341      64.267349    
   5770000   0.84526826    -1.2491782      1.2679007      0.018722575    1.0018328      652610.53      100.76123      100.76123      64.278714    
   5780000   0.84407711    -1.2469016      1.266114       0.019212405    0.99794195     652801.48      100.77105      100.77105      64.284983    
   5790000   0.84519397    -1.2487851      1.2677893      0.019004169    1.0046076      652561.52      100.7587       100.7587       64.277105    
   5800000   0.84548652    -1.2477029      1.2682281      0.020525203    0.9752402      652746.74      100.76824      100.76824      64.283186    
   5810000   0.84388569    -1.2461242      1.2658269      0.019702717    1.0121921      652549.75      100.7581       100.7581       64.276718    
   5820000   0.84442232    -1.2473618      1.2666318      0.019270001    1.0120336      652430.84      100.75198      100.75198      64.272814    
   5830000   0.84521625    -1.246616       1.2678227      0.021206686    0.99883819     652825.46      100.77229      100.77229      64.28577     
   5840000   0.84480127    -1.2479738      1.2672002      0.019226416    1.0058859      652494.49      100.75525      100.75525      64.274904    
   5850000   0.84687874    -1.2485129      1.2703165      0.02180352     1.0038278      652536.61      100.75742      100.75742      64.276287    
   5860000   0.84549524    -1.246516       1.2682412      0.021725186    1.0097077      652576.33      100.75947      100.75947      64.277591    
   5870000   0.84688159    -1.2452437      1.2703207      0.02507698     1.0100941      652805.14      100.77124      100.77124      64.285103    
   5880000   0.84360795    -1.2509434      1.2654103      0.014466854    0.99453867     652456.28      100.75329      100.75329      64.273649    
   5890000   0.84573908    -1.2464732      1.268607       0.022133806    0.99748674     652746.94      100.76825      100.76825      64.283192    
   5900000   0.8444198     -1.2506442      1.266628       0.015983808    0.99561488     652486.77      100.75486      100.75486      64.274651    
   5910000   0.84427075    -1.2491908      1.2664045      0.017213662    1.00338        652488.53      100.75495      100.75495      64.274708    
   5920000   0.84413736    -1.2487052      1.2662044      0.01749914     0.99592308     652713.97      100.76655      100.76655      64.28211     
   5930000   0.84447675    -1.251855       1.2667135      0.0148585      1.0043803      652358.02      100.74823      100.74823      64.270423    
   5940000   0.84418718    -1.2479887      1.2662791      0.018290392    1.0132536      652585.59      100.75994      100.75994      64.277895    
   5950000   0.84613183    -1.2516664      1.2691961      0.017529669    0.99107822     652530.49      100.75711      100.75711      64.276086    
   5960000   0.84621743    -1.2475877      1.2693245      0.021736746    0.99531237     652699.67      100.76581      100.76581      64.281641    
   5970000   0.84456633    -1.2499674      1.2668478      0.016880459    0.99817041     652555.64      100.7584       100.7584       64.276912    
   5980000   0.84627969    -1.247553       1.2694179      0.021864899    0.98983066     652833.54      100.7727       100.7727       64.286035    
   5990000   0.84547365    -1.2477956      1.2682088      0.02041318     0.99481068     652698.74      100.76577      100.76577      64.28161     
   6000000   0.84582545    -1.2481684      1.2687365      0.020568128    0.99102299     652689.35      100.76528      100.76528      64.281302    
   6010000   0.84479608    -1.2485857      1.2671925      0.018606776    0.99069394     652546.53      100.75793      100.75793      64.276613    
   6020000   0.84592054    -1.2447082      1.2688792      0.024170922    1.0114223      652814.98      100.77175      100.77175      64.285426    
   6030000   0.84524447    -1.2489348      1.2678651      0.018930303    1.0090456      652715.42      100.76663      100.76663      64.282157    
   6040000   0.84580833    -1.2504251      1.2687108      0.018285774    0.98298715     652649.15      100.76321      100.76321      64.279982    
   6050000   0.84483634    -1.2500455      1.2672529      0.017207303    0.99420271     652530.27      100.7571       100.7571       64.276079    
   6060000   0.84482171    -1.2489742      1.2672309      0.018256661    1.006934       652502.23      100.75565      100.75565      64.275158    
   6070000   0.84635885    -1.2481422      1.2695366      0.021394374    0.98898761     652760.62      100.76895      100.76895      64.283641    
   6080000   0.84573111    -1.2472602      1.268595       0.021334845    1.0035073      652689.35      100.76528      100.76528      64.281302    
   6090000   0.84514995    -1.2501962      1.2677233      0.017527034    1.0075606      652433.27      100.7521       100.7521       64.272894    
   6100000   0.8467174     -1.249524       1.2700744      0.020550433    1.0017346      652574.77      100.75939      100.75939      64.27754     
   6110000   0.84554036    -1.2491337      1.2683089      0.019175177    0.99956686     652494.62      100.75526      100.75526      64.274908    
   6120000   0.84535865    -1.2476238      1.2680363      0.020412521    1.0067361      652570.85      100.75918      100.75918      64.277411    
   6130000   0.84526486    -1.2490435      1.2678956      0.018852126    0.9960259      652682.59      100.76494      100.76494      64.28108     
   6140000   0.84364535    -1.246895       1.2654664      0.018571401    0.99443902     652771.32      100.7695       100.7695       64.283993    
   6150000   0.84559315    -1.2487017      1.2683881      0.019686377    0.99378263     652580.12      100.75966      100.75966      64.277716    
   6160000   0.84509696    -1.2511194      1.2676438      0.016524411    0.99702412     652465.57      100.75377      100.75377      64.273954    
   6170000   0.84536878    -1.2463822      1.2680515      0.02166928     1.0165845      652771.4       100.76951      100.76951      64.283995    
   6180000   0.84467354    -1.2446314      1.2670087      0.022377238    0.99583692     652946.08      100.77849      100.77849      64.289729    
   6190000   0.84646423    -1.2491475      1.2696947      0.020547237    0.99909724     652425.52      100.7517       100.7517       64.272639    
   6200000   0.84535478    -1.2479271      1.2680305      0.02010338     0.99630746     652723         100.76702      100.76702      64.282406    
   6210000   0.84524694    -1.245213       1.2678688      0.022655764    0.99796646     652877.79      100.77498      100.77498      64.287487    
   6220000   0.84449276    -1.2495712      1.2667375      0.017166267    0.99328424     652551.2       100.75817      100.75817      64.276766    
   6230000   0.84500136    -1.2516035      1.2675004      0.015896847    1.000167       652491.88      100.75512      100.75512      64.274818    
   6240000   0.84409919    -1.2474022      1.2661471      0.018744942    0.98976043     652936.52      100.778        100.778        64.289415    
   6250000   0.84550255    -1.2487871      1.2682522      0.019465028    1.009906       652551.36      100.75818      100.75818      64.276771    
   6260000   0.84317986    -1.2474119      1.2647681      0.017356199    1.0159592      652564.34      100.75885      100.75885      64.277197    
   6270000   0.84544457    -1.2488139      1.2681652      0.019351311    1.0025101      652590.63      100.7602       100.7602       64.278061    
   6280000   0.84421442    -1.2464979      1.26632        0.019822126    0.99207635     652773.1       100.76959      100.76959      64.284051    
   6290000   0.84489293    -1.2475164      1.2673377      0.019821337    0.99249377     652630.79      100.76227      100.76227      64.279379    
   6300000   0.84502896    -1.2469434      1.2675418      0.020598391    0.99588083     652804.23      100.7712       100.7712       64.285073    
   6310000   0.84396008    -1.2496228      1.2659385      0.016315668    0.99280877     652548.77      100.75805      100.75805      64.276686    
   6320000   0.84608271    -1.2458372      1.2691224      0.023285184    0.98255451     652902.06      100.77623      100.77623      64.288284    
   6330000   0.84663622    -1.245392       1.2699527      0.024560637    1.0076578      652748.8       100.76834      100.76834      64.283253    
   6340000   0.8440998     -1.246586       1.266148       0.019562069    1.0047727      652739.98      100.76789      100.76789      64.282964    
   6350000   0.84505319    -1.2516365      1.2675781      0.015941599    1.0078178      652304.32      100.74547      100.74547      64.268659    
   6360000   0.84428141    -1.2479461      1.2664205      0.018474313    1.0033219      652677.75      100.76469      100.76469      64.280921    
   6370000   0.84317916    -1.2460814      1.2647671      0.018685703    1.0004989      652877.41      100.77496      100.77496      64.287475    
   6380000   0.84536909    -1.2461603      1.268052       0.021891717    1.0134915      652723.21      100.76703      100.76703      64.282413    
   6390000   0.84497141    -1.2459068      1.2674555      0.021548692    0.99498292     652986.34      100.78056      100.78056      64.29105     
   6400000   0.84442177    -1.2481641      1.266631       0.018466912    1.0148687      652595.22      100.76044      100.76044      64.278211    
   6410000   0.8460978     -1.24803        1.269145       0.021115059    1.0055113      652679.82      100.76479      100.76479      64.280989    
   6420000   0.84480248    -1.2476264      1.2672021      0.019575665    1.0049678      652820.31      100.77202      100.77202      64.285601    
   6430000   0.84547353    -1.2485856      1.2682086      0.019623077    1.0072206      652484.64      100.75475      100.75475      64.274581    
   6440000   0.84445601    -1.2485353      1.2666824      0.018147055    0.98092319     652697.73      100.76571      100.76571      64.281577    
   6450000   0.84499346    -1.2479212      1.2674885      0.019567374    0.98885407     652784.96      100.7702       100.7702       64.28444     
   6460000   0.84553536    -1.2433524      1.2683014      0.024948982    1.0021967      653091.67      100.78598      100.78598      64.294507    
   6470000   0.84454583    -1.2457358      1.2668171      0.021081244    0.99305382     652927.66      100.77755      100.77755      64.289124    
   6480000   0.84353216    -1.2459367      1.2652966      0.019359936    1.0103129      652679.98      100.7648       100.7648       64.280994    
   6490000   0.84446238    -1.2467917      1.2666919      0.019900185    0.99063331     652769.23      100.76939      100.76939      64.283924    
   6500000   0.84367465    -1.248337       1.2655103      0.01717336     0.99880206     652613.6       100.76139      100.76139      64.278815    
   6510000   0.84516287    -1.2479697      1.2677427      0.01977297     0.98649413     652822.81      100.77215      100.77215      64.285683    
   6520000   0.84442615    -1.2455163      1.2666376      0.021121241    0.99634899     652841.45      100.77311      100.77311      64.286295    
   6530000   0.84429456    -1.2464205      1.2664402      0.02001968     0.98993389     652787.73      100.77035      100.77035      64.284531    
   6540000   0.84574614    -1.2448948      1.2686176      0.023722742    0.99052166     652958.08      100.77911      100.77911      64.290123    
   6550000   0.8449688     -1.2477663      1.2674515      0.01968529     0.96213978     653106.09      100.78673      100.78673      64.29498     
   6560000   0.84515539    -1.2437829      1.2677314      0.023948555    1.0028407      652954.09      100.77891      100.77891      64.289992    
   6570000   0.84532786    -1.2466545      1.2679901      0.021335614    1.0125561      652623.75      100.76191      100.76191      64.279148    
   6580000   0.84452549    -1.2474382      1.2667866      0.019348367    1.0146215      652453.41      100.75314      100.75314      64.273555    
   6590000   0.84334425    -1.2469872      1.2650147      0.018027553    1.0124564      652545.62      100.75789      100.75789      64.276583    
   6600000   0.84405349    -1.2490433      1.2660786      0.017035308    1.0153534      652419.3       100.75138      100.75138      64.272435    
   6610000   0.84678431    -1.2492524      1.2701748      0.020922413    0.99088213     652669.77      100.76428      100.76428      64.280659    
   6620000   0.84566391    -1.2506111      1.2684942      0.017883155    1.012467       652403.49      100.75057      100.75057      64.271916    
   6630000   0.84594911    -1.249325       1.268922       0.019596975    0.99922217     652595.25      100.76044      100.76044      64.278212    
   6640000   0.8446485     -1.2497169      1.2669711      0.017254151    1.0023551      652518.21      100.75648      100.75648      64.275683    
   6650000   0.84467705    -1.2458907      1.2670139      0.021123272    0.9868052      652880.45      100.77512      100.77512      64.287575    
   6660000   0.84539841    -1.2486856      1.268096       0.019410397    0.99992341     652501.49      100.75562      100.75562      64.275134    
   6670000   0.84518968    -1.2456422      1.2677829      0.022140643    0.97813052     652958.37      100.77913      100.77913      64.290132    
   6680000   0.84392054    -1.2501105      1.2658792      0.015768621    0.98513111     652608.59      100.76113      100.76113      64.27865     
   6690000   0.84457963    -1.2465754      1.2668678      0.020292357    0.99903586     652786.03      100.77026      100.77026      64.284475    
   6700000   0.84521857    -1.2487676      1.2678262      0.019058568    1.0121105      652469.63      100.75398      100.75398      64.274088    
   6710000   0.84430433    -1.2532469      1.2664548      0.013207953    1.0086454      652174.57      100.73879      100.73879      64.264397    
   6720000   0.84408482    -1.2462853      1.2661256      0.019840306    0.99255382     652840.38      100.77306      100.77306      64.286259    
   6730000   0.84490437    -1.2481172      1.2673549      0.019237705    1.0224944      652459.3       100.75344      100.75344      64.273749    
   6740000   0.84614132    -1.2502275      1.2692103      0.01898283     1.0110239      652320.92      100.74632      100.74632      64.269204    
   6750000   0.84511843    -1.2477974      1.267676       0.019878577    0.98108975     652889.81      100.7756       100.7756       64.287882    
   6760000   0.84556068    -1.249837       1.2683394      0.018502326    1.0000433      652555.05      100.75837      100.75837      64.276892    
   6770000   0.84474011    -1.2472883      1.2671085      0.019820248    1.004621       652547.53      100.75799      100.75799      64.276646    
   6780000   0.8467922     -1.2508018      1.2701866      0.019384884    1.0223463      652202.03      100.7402       100.7402       64.2653      
   6790000   0.84617626    -1.2534894      1.2692627      0.015773299    0.99572099     652270.56      100.74373      100.74373      64.26755     
   6800000   0.84462577    -1.2502302      1.266937       0.016706803    1.0025921      652412.29      100.75102      100.75102      64.272205    
   6810000   0.84576902    -1.2471732      1.2686519      0.021478659    0.98922959     652823.09      100.77217      100.77217      64.285692    
   6820000   0.84463893    -1.2518055      1.2669567      0.015151239    1.0144186      652256.85      100.74302      100.74302      64.2671      
   6830000   0.84443024    -1.2487091      1.2666437      0.017934566    0.99846822     652596.33      100.7605       100.7605       64.278248    
   6840000   0.84549519    -1.2470071      1.2682411      0.021234037    1.0048801      652670.18      100.7643       100.7643       64.280672    
   6850000   0.84499056    -1.2465914      1.2674842      0.020892748    1.0212878      652608.17      100.76111      100.76111      64.278637    
   6860000   0.8465403     -1.248718       1.2698088      0.021090788    1.0129544      652342         100.74741      100.74741      64.269897    
   6870000   0.84494885    -1.2465965      1.2674216      0.020825125    1.0075795      652548.75      100.75805      100.75805      64.276685    
   6880000   0.84586882    -1.2476287      1.2688016      0.021172893    1.0019855      652661.08      100.76383      100.76383      64.280374    
   6890000   0.84493671    -1.2495126      1.2674034      0.017890763    0.99477956     652672.58      100.76442      100.76442      64.280751    
   6900000   0.84429593    -1.2502865      1.2664422      0.016155786    0.98949176     652447.03      100.75281      100.75281      64.273346    
   6910000   0.84530419    -1.2510114      1.2679546      0.016943256    1.0263311      652221.85      100.74122      100.74122      64.26595     
   6920000   0.84431004    -1.2508943      1.2664634      0.015569061    0.99770161     652449.88      100.75296      100.75296      64.273439    
   6930000   0.84491813    -1.2498813      1.2673755      0.017494284    1.0074563      652462.31      100.7536       100.7536       64.273847    
   6940000   0.84526566    -1.2481707      1.2678968      0.019726186    0.99216008     652644.05      100.76295      100.76295      64.279815    
   6950000   0.84395675    -1.2465409      1.2659335      0.019392609    0.98623909     652855.58      100.77384      100.77384      64.286758    
   6960000   0.84446047    -1.2498735      1.2666891      0.016815511    0.99761046     652574.67      100.75938      100.75938      64.277537    
   6970000   0.84357207    -1.2458855      1.2653565      0.019470924    1.0075825      652714.4       100.76657      100.76657      64.282124    
   6980000   0.84393747    -1.2502203      1.2659046      0.015684258    0.99031551     652561.63      100.75871      100.75871      64.277109    
   6990000   0.84629868    -1.2496097      1.2694464      0.019836683    1.0049621      652451.3       100.75303      100.75303      64.273486    
   7000000   0.84598215    -1.2498135      1.2689716      0.019158091    1.0114554      652402.08      100.7505       100.7505       64.27187     
   7010000   0.84400396    -1.2463042      1.2660043      0.019700042    0.98365429     652984.66      100.78048      100.78048      64.290995    
   7020000   0.84446539    -1.246129       1.2666964      0.020567425    1.0056187      652794.43      100.77069      100.77069      64.284751    
   7030000   0.84508453    -1.2477087      1.2676251      0.019916399    1.0095248      652601.19      100.76075      100.76075      64.278407    
   7040000   0.84446248    -1.2486191      1.2666921      0.018072925    1.0127281      652518.07      100.75647      100.75647      64.275678    
   7050000   0.84589582    -1.2486865      1.2688421      0.020155558    1.0213681      652487.19      100.75488      100.75488      64.274664    
   7060000   0.84548254    -1.2490678      1.2682221      0.019154385    0.99016698     652594.2       100.76039      100.76039      64.278178    
   7070000   0.84482578    -1.2489424      1.267237       0.018294628    0.99676705     652449.46      100.75294      100.75294      64.273425    
   7080000   0.84630051    -1.2490579      1.2694491      0.020391185    1.0175434      652563.5       100.75881      100.75881      64.27717     
   7090000   0.84554982    -1.247081       1.2683231      0.021242046    1.0005866      652730.67      100.76741      100.76741      64.282658    
   7100000   0.84325375    -1.2489265      1.264879       0.015952476    0.99748901     652644.56      100.76298      100.76298      64.279831    
   7110000   0.84536062    -1.2516699      1.2680393      0.016369405    1.0175916      652247.82      100.74256      100.74256      64.266804    
   7120000   0.84489413    -1.2478787      1.2673395      0.0194608      1.0292356      652417.23      100.75128      100.75128      64.272367    
   7130000   0.84478279    -1.2500643      1.2671725      0.017108188    1.0030166      652455.36      100.75324      100.75324      64.273619    
   7140000   0.84530621    -1.2481316      1.2679577      0.01982603     1.0061412      652484.65      100.75475      100.75475      64.274581    
   7150000   0.84580366    -1.2468274      1.2687038      0.021876469    1.0106568      652614.6       100.76144      100.76144      64.278848    
   7160000   0.84452521    -1.2468572      1.2667862      0.019928926    0.99110981     652697.07      100.76568      100.76568      64.281555    
   7170000   0.84525349    -1.2464352      1.2678786      0.021443372    0.99692053     652846.78      100.77338      100.77338      64.286469    
   7180000   0.84406073    -1.248017       1.2660894      0.018072423    1.0023387      652648.79      100.7632       100.7632       64.27997     
   7190000   0.84578655    -1.2468245      1.2686782      0.021853692    0.99665344     652767.44      100.7693       100.7693       64.283865    
   7200000   0.84353377    -1.2475349      1.265299       0.017764141    0.98432619     652775.58      100.76972      100.76972      64.284132    
   7210000   0.84578993    -1.2487867      1.2686832      0.01989653     0.99739536     652559.99      100.75863      100.75863      64.277055    
   7220000   0.84632281    -1.2472399      1.2694826      0.022242686    1.0131549      652519.43      100.75654      100.75654      64.275723    
   7230000   0.84365831    -1.2493385      1.2654858      0.016147283    1.0051769      652555.15      100.75838      100.75838      64.276896    
   7240000   0.84413149    -1.2496577      1.2661956      0.016537845    0.99777699     652522.6       100.7567       100.7567       64.275827    
   7250000   0.84631494    -1.2489715      1.2694708      0.020499297    1.0130953      652464.1       100.75369      100.75369      64.273906    
   7260000   0.84575226    -1.251112       1.2686267      0.017514704    1.0209222      652199.89      100.74009      100.74009      64.265229    
   7270000   0.84678528    -1.2470961      1.2701763      0.023080129    1.0089821      652624.74      100.76196      100.76196      64.27918     
   7280000   0.84426003    -1.2454635      1.2663884      0.020924917    0.99652967     652946.08      100.77849      100.77849      64.289729    
   7290000   0.84396248    -1.247966       1.2659421      0.017976104    0.99718995     652506.03      100.75585      100.75585      64.275283    
   7300000   0.845532      -1.2486244      1.2682963      0.019671914    1.0029553      652555.8       100.75841      100.75841      64.276917    
   7310000   0.84452089    -1.248326       1.2667797      0.018453727    0.9968954      652569.29      100.7591       100.7591       64.27736     
   7320000   0.84455375    -1.2489179      1.266829       0.017911097    1.0023468      652592.64      100.76031      100.76031      64.278127    
   7330000   0.84622383    -1.2457338      1.2693341      0.023600291    1.0002015      652723.35      100.76703      100.76703      64.282418    
   7340000   0.84567599    -1.2475227      1.2685123      0.020989635    0.99002462     652689.89      100.76531      100.76531      64.281319    
   7350000   0.84529537    -1.2472223      1.2679414      0.020719114    0.99793842     652735.24      100.76765      100.76765      64.282808    
   7360000   0.84609792    -1.2484883      1.2691452      0.020656895    1.0106463      652533.56      100.75727      100.75727      64.276187    
   7370000   0.84433467    -1.2472203      1.2665003      0.019280006    0.99709212     652640.12      100.76275      100.76275      64.279685    
   7380000   0.84434541    -1.2470613      1.2665165      0.019455119    1.0054508      652558.89      100.75857      100.75857      64.277019    
   7390000   0.84448798    -1.2472229      1.2667303      0.019507433    0.98176518     652823.43      100.77218      100.77218      64.285703    
   7400000   0.84551876    -1.2482924      1.2682765      0.019984096    1.0140478      652448.29      100.75288      100.75288      64.273387    
   7410000   0.84539039    -1.2474908      1.2680839      0.020593091    1.0051163      652642.95      100.7629       100.7629       64.279778    
   7420000   0.84519654    -1.2479972      1.2677932      0.019795996    1.0013214      652675.82      100.76459      100.76459      64.280858    
   7430000   0.84573011    -1.2495511      1.2685935      0.019042406    1.0122867      652389.67      100.74986      100.74986      64.271462    
   7440000   0.84483721    -1.2485689      1.2672542      0.018685234    1.0082956      652579.62      100.75964      100.75964      64.277699    
   7450000   0.84539827    -1.2449477      1.2680958      0.023148043    0.98789097     653112.41      100.78705      100.78705      64.295187    
   7460000   0.84451901    -1.2478428      1.2667769      0.018934109    1.0086079      652636.16      100.76255      100.76255      64.279556    
   7470000   0.84594392    -1.2497813      1.2689142      0.019132901    1.0061206      652467.03      100.75384      100.75384      64.274002    
   7480000   0.84534966    -1.2470152      1.2680228      0.021007603    1.0106089      652740.17      100.7679       100.7679       64.28297     
   7490000   0.84541661    -1.250174       1.2681233      0.017949251    1.0209556      652401.95      100.75049      100.75049      64.271865    
   7500000   0.84582111    -1.2482079      1.26873        0.020522108    1.006359       652558.31      100.75854      100.75854      64.277       
   7510000   0.84403022    -1.2456         1.2660437      0.020443701    1.010868       652843.95      100.77324      100.77324      64.286377    
   7520000   0.84501018    -1.2469158      1.2675136      0.020597782    0.979831       652858.4       100.77398      100.77398      64.286851    
   7530000   0.8447033     -1.2484839      1.2670533      0.018569389    0.99314273     652625.29      100.76199      100.76199      64.279198    
   7540000   0.84521597    -1.2471826      1.2678223      0.020639664    1.0017037      652741.61      100.76797      100.76797      64.283017    
   7550000   0.84455416    -1.2476484      1.2668296      0.019181212    0.98971021     652708.3       100.76626      100.76626      64.281924    
   7560000   0.84335133    -1.242539       1.2650254      0.022486305    0.98202583     653253.74      100.79432      100.79432      64.299825    
   7570000   0.84609135    -1.2463203      1.2691354      0.022815095    1.0144592      652640.59      100.76277      100.76277      64.279701    
   7580000   0.84571415    -1.2471258      1.2685696      0.021443727    1.0010109      652647.85      100.76315      100.76315      64.279939    
   7590000   0.84453011    -1.2490931      1.2667935      0.017700357    1.0047406      652563.19      100.75879      100.75879      64.27716     
   7600000   0.8447084     -1.2468858      1.2670609      0.020175115    0.99510616     652729.07      100.76733      100.76733      64.282606    
   7610000   0.84464892    -1.2481791      1.2669717      0.018792597    1.0160372      652341.12      100.74736      100.74736      64.269868    
   7620000   0.84544755    -1.2520469      1.2681697      0.01612274     0.9911243      652481.66      100.75459      100.75459      64.274483    
   7630000   0.84446605    -1.2527685      1.2666974      0.013928965    1.0080143      652186.12      100.73938      100.73938      64.264777    
   7640000   0.84517284    -1.2462415      1.2677576      0.021516064    1.0122014      652684.93      100.76506      100.76506      64.281156    
   7650000   0.84459586    -1.2440953      1.2668921      0.022796872    1.0085185      652849.69      100.77353      100.77353      64.286565    
   7660000   0.84461881    -1.2496093      1.2669266      0.017317207    0.99004258     652548.38      100.75803      100.75803      64.276673    
   7670000   0.84395807    -1.2483912      1.2659355      0.017544206    1.012819       652401.74      100.75048      100.75048      64.271858    
   7680000   0.84426589    -1.2443163      1.2663972      0.022080856    1.0214119      652797.86      100.77087      100.77087      64.284864    
   7690000   0.84495195    -1.2515356      1.2674263      0.015890712    1.0062634      652328.06      100.74669      100.74669      64.269439    
   7700000   0.84459071    -1.2492553      1.2668844      0.017629081    1.0118472      652525.67      100.75686      100.75686      64.275928    
   7710000   0.8450172     -1.248886       1.2675242      0.018638152    1.0049807      652563.93      100.75883      100.75883      64.277184    
   7720000   0.84359318    -1.246042       1.2653881      0.019346106    1.0255219      652522.11      100.75668      100.75668      64.275811    
   7730000   0.84520272    -1.2501527      1.2678024      0.017649772    1.0114606      652262.11      100.74329      100.74329      64.267273    
   7740000   0.8451163     -1.2471783      1.2676728      0.020494519    0.98937159     652640.79      100.76278      100.76278      64.279708    
   7750000   0.84662234    -1.2507035      1.2699319      0.01922831     1.0069338      652329.3       100.74675      100.74675      64.269479    
   7760000   0.84487046    -1.2498922      1.267304       0.017411793    0.99438634     652587.52      100.76004      100.76004      64.277959    
   7770000   0.84534687    -1.2466301      1.2680186      0.02138857     1.007054       652745.11      100.76815      100.76815      64.283132    
   7780000   0.84596994    -1.2484082      1.2689533      0.020545022    1.0070723      652528.87      100.75702      100.75702      64.276033    
   7790000   0.84571766    -1.2466893      1.2685748      0.021885517    1.0025129      652700.73      100.76587      100.76587      64.281675    
   7800000   0.84601173    -1.2494741      1.2690159      0.019541825    1.0117525      652461.55      100.75356      100.75356      64.273822    
   7810000   0.84469788    -1.2490291      1.2670452      0.018016024    1.0091551      652419.32      100.75139      100.75139      64.272436    
   7820000   0.84438363    -1.2465447      1.2665738      0.020029141    0.99014694     652863.6       100.77425      100.77425      64.287022    
   7830000   0.8458529     -1.2489504      1.2687777      0.019827254    1.0062642      652714.97      100.7666       100.7666       64.282143    
   7840000   0.84404671    -1.2470617      1.2660684      0.019006676    0.99257064     652745.99      100.7682       100.7682       64.283161    
   7850000   0.84586315    -1.2489708      1.2687931      0.019822286    0.99669171     652663.16      100.76394      100.76394      64.280442    
   7860000   0.84472611    -1.2487704      1.2670875      0.018317098    1.0005036      652589.96      100.76017      100.76017      64.278039    
   7870000   0.8449329     -1.2482002      1.2673977      0.019197505    0.99619818     652657.48      100.76364      100.76364      64.280255    
   7880000   0.84501755    -1.251042       1.2675247      0.01648271     0.99631903     652471.02      100.75405      100.75405      64.274133    
   7890000   0.84359236    -1.247361       1.2653869      0.018025896    0.99638822     652580.8       100.7597       100.7597       64.277738    
   7900000   0.84566574    -1.249108       1.268497       0.019389007    1.0085164      652356.29      100.74814      100.74814      64.270366    
   7910000   0.84449252    -1.2496573      1.2667371      0.017079826    1.0218783      652272.66      100.74384      100.74384      64.267619    
   7920000   0.84400576    -1.2467287      1.266007       0.019278246    0.99338802     652786.68      100.77029      100.77029      64.284497    
   7930000   0.84556048    -1.2487723      1.2683391      0.019566733    0.99154528     652748.27      100.76832      100.76832      64.283236    
   7940000   0.84574302    -1.2513105      1.2686129      0.017302369    0.99538775     652330.23      100.7468       100.7468       64.26951     
   7950000   0.84413895    -1.2457663      1.2662068      0.020440512    1.0159591      652554.98      100.75837      100.75837      64.27689     
   7960000   0.84464853    -1.2468049      1.2669711      0.020166207    1.0181669      652620.15      100.76172      100.76172      64.27903     
   7970000   0.84665126    -1.2461466      1.2699752      0.023828605    1.0201992      652557.78      100.75851      100.75851      64.276982    
   7980000   0.84537256    -1.2455577      1.2680572      0.022499493    1.0042104      652828.2       100.77243      100.77243      64.28586     
   7990000   0.84427106    -1.2497916      1.2664049      0.016613324    0.98084724     652661.2       100.76384      100.76384      64.280378    
   8000000   0.84417244    -1.2468204      1.266257       0.019436649    0.99559388     652856.35      100.77388      100.77388      64.286783    
   8010000   0.84507597    -1.2430841      1.2676123      0.024528197    0.99705383     653161.45      100.78957      100.78957      64.296797    
   8020000   0.84523494    -1.2440875      1.2678508      0.02376327     1.0068648      652922.59      100.77729      100.77729      64.288958    
   8030000   0.84376574    -1.2503559      1.265647       0.015291021    0.99894865     652545.06      100.75786      100.75786      64.276565    
   8040000   0.84496997    -1.2464645      1.2674533      0.020988785    0.97567652     652870.9       100.77463      100.77463      64.287261    
   8050000   0.84415759    -1.2462318      1.2662347      0.020002941    1.0001339      652756.68      100.76875      100.76875      64.283512    
   8060000   0.84503069    -1.2472732      1.2675444      0.020271185    1.0070056      652606.41      100.76102      100.76102      64.278579    
   8070000   0.84478177    -1.247689       1.267171       0.019481964    0.98428706     652847.95      100.77344      100.77344      64.286508    
