======================================
Working directory: /jet/home/dpollard/Documents/lammps_runs/slab_with_support_slab_support_5beads_tall_3_1.0_1.4_20260127_195522
Trajectory directory (scratch): /ocean/projects/chm250028p/dpollard/lammps_trajectories/slab_with_support_slab_support_5beads_tall_3_1.0_1.4_20260127_195522
======================================
Running LAMMPS in slab_with_support with:
  dataname=slab_support_5beads_tall_3
  epsSS=1.0, epsSP=1.4
  nsteps=200000, oldsteps=0, totsteps=200000
SLURM tasks per node: 120
SLURM CPUs per task: 1
SLURM_GPUS_ON_NODE: 
GPUs allocated: 
Running CPU-only with 600 tasks
LAMMPS (22 Jul 2025)
OMP_NUM_THREADS environment is not set. Defaulting to 1 thread.
  using 1 OpenMP thread(s) per MPI task
using multi-threaded neighbor list subroutines
Reading data file ...
  orthogonal box = (0 0 0) to (69.6 69.6 100.8)
  6 by 10 by 10 MPI processor grid
  reading atoms ...
  758308 atoms
  scanning bonds ...
  3 = max bonds/atom
  orthogonal box = (0 0 0) to (69.6 69.6 100.8)
  6 by 10 by 10 MPI processor grid
  reading bonds ...
  147456 bonds
Finding 1-2 1-3 1-4 neighbors ...
  special bond factors lj:    0        0        0       
  special bond factors coul:  0        0        0       
     4 = max # of 1-2 neighbors
     4 = max # of 1-3 neighbors
     8 = max # of 1-4 neighbors
    12 = max # of special neighbors
  special bonds CPU = 0.139 seconds
  read_data CPU = 6.427 seconds
>>> is_restart = 0
>>> Previous    # of timesteps: 0
>>> Current     # of timesteps: 200000
>>> Cumulative  # of timesteps: 200000
130121 atoms in group polymer
488291 atoms in group solvent
69948 atoms in group support
69948 atoms in group piston
618412 atoms in group mobile
270017 atoms in group polymer_and_support
Finding 1-2 1-3 1-4 neighbors ...
  special bond factors lj:    0        1        1       
  special bond factors coul:  0        1        1       
     4 = max # of 1-2 neighbors
    12 = max # of special neighbors
  special bonds CPU = 0.045 seconds
Generated 0 of 10 mixed pair_coeff terms from geometric mixing rule
Last active /omp style is bond_style fene/omp
Neighbor list info ...
  update: every = 1 steps, delay = 0 steps, check = yes
  max neighbors/atom: 2000, page size: 100000
  master list distance cutoff = 2.8
  ghost atom cutoff = 5
  binsize = 1.4, bins = 50 50 72
  1 neighbor lists, perpetual/occasional/extra = 1 0 0
  (1) pair lj/cut/omp, perpetual
      attributes: half, newton on, omp
      pair build: half/bin/newton/omp
      stencil: half/bin/3d
      bin: standard
Setting up cg style minimization ...
  Unit style    : lj
  Current step  : 0
Per MPI rank memory allocation (min/avg/max) = 11.32 | 13.23 | 20.19 Mbytes
   Step          Temp          E_pair         E_mol          TotEng         Press     
         0   0              4.2456282e+19  17783.599      4.2456282e+19  2.6373549e+20
      3569   0             -4.6780877      4.3240199     -0.35406777     33.557078    
Loop time of 26.768 on 600 procs for 3569 steps with 758308 atoms

99.4% CPU use with 600 MPI tasks x 1 OpenMP threads

Minimization stats:
  Stopping criterion = energy tolerance
  Energy initial, next-to-last, final = 
    4.24562822224367e+19 -0.354032943856236 -0.354067765626751
  Force two-norm initial, final = 4.1841555e+28 370.15784
  Force max component initial, final = 1.8345142e+28 152.25879
  Final line search alpha, max atom move = 0.0032427539 0.49373779
  Iterations, force evaluations = 3569 4194

MPI task timing breakdown:
Section |  min time  |  avg time  |  max time  |%varavg| %total
---------------------------------------------------------------
Pair    | 3.6459     | 5.5224     | 12.293     |  56.6 | 20.63
Bond    | 0.0032766  | 0.047379   | 0.18689    |  21.1 |  0.18
Neigh   | 8.8475     | 9.3097     | 9.6904     |   6.7 | 34.78
Comm    | 2.9258     | 6.3506     | 10.951     |  54.8 | 23.72
Output  | 0          | 0          | 0          |   0.0 |  0.00
Modify  | 0.039292   | 0.06751    | 0.12841    |   7.0 |  0.25
Other   |            | 5.47       |            |       | 20.44

Nlocal:        1263.85 ave        2242 max         987 min
Histogram: 480 0 0 0 0 0 0 0 0 120
Nghost:          10174 ave       17843 max        8018 min
Histogram: 480 0 0 0 0 0 0 0 0 120
Neighs:        61022.6 ave       66123 max       56318 min
Histogram: 33 70 77 62 53 50 137 86 14 18

Total # of neighbors = 36613536
Ave neighs/atom = 48.283199
Ave special neighs/atom = 0.38890794
Neighbor list builds = 840
Dangerous builds = 24
Generated 0 of 10 mixed pair_coeff terms from geometric mixing rule
Last active /omp style is bond_style fene/omp
Setting up Verlet run ...
  Unit style    : lj
  Current step  : 0
  Time step     : 0.001
Per MPI rank memory allocation (min/avg/max) = 10.23 | 11.9 | 17.96 Mbytes
   Step          Temp          PotEng         KinEng         TotEng         Press          Volume           Lx             Ly             Lz      
         0   0.081551535   -0.35406777     0.12232714    -0.23174062     33.683726      488291.33      69.6           69.6           100.8        
      1000   0.53616906     0.4195084      0.80425253     1.2237609      39.866966      488291.33      69.6           69.6           100.8        
Loop time of 2.22835 on 600 procs for 1000 steps with 758308 atoms

Performance: 38773.123 tau/day, 448.763 timesteps/s, 340.301 Matom-step/s
99.4% CPU use with 600 MPI tasks x 1 OpenMP threads

MPI task timing breakdown:
Section |  min time  |  avg time  |  max time  |%varavg| %total
---------------------------------------------------------------
Pair    | 0.69547    | 0.76183    | 0.84623    |   3.6 | 34.19
Bond    | 0.00059919 | 0.0038777  | 0.0086924  |   4.8 |  0.17
Neigh   | 0.20039    | 0.21007    | 0.22023    |   1.1 |  9.43
Comm    | 0.66296    | 0.88294    | 1.1118     |  11.3 | 39.62
Output  | 8.7724e-05 | 0.00041194 | 0.0007468  |   0.0 |  0.02
Modify  | 0.070887   | 0.079571   | 0.10421    |   1.9 |  3.57
Other   |            | 0.2897     |            |       | 13.00

Nlocal:        1263.85 ave        2235 max         991 min
Histogram: 480 0 0 0 0 0 0 0 0 120
Nghost:        10175.8 ave       17837 max        8044 min
Histogram: 480 0 0 0 0 0 0 0 0 120
Neighs:        60920.9 ave       66074 max       56172 min
Histogram: 14 59 96 67 63 67 144 62 10 18

Total # of neighbors = 36552518
Ave neighs/atom = 48.202733
Ave special neighs/atom = 0.38890794
Neighbor list builds = 19
Dangerous builds = 0
Generated 0 of 10 mixed pair_coeff terms from geometric mixing rule
Last active /omp style is bond_style fene/omp
Setting up Verlet run ...
  Unit style    : lj
  Current step  : 0
  Time step     : 0.005
Per MPI rank memory allocation (min/avg/max) = 10.23 | 11.9 | 17.96 Mbytes
   Step          Temp          PotEng         KinEng         TotEng         Press          Volume           Lx             Ly             Lz      
         0   0.53616906     0.4195084      0.80425253     1.2237609      39.866966      488291.33      69.6           69.6           100.8        
      1000   0.77831589    -0.54281268     1.1674723      0.62465961     1.7327288      709283.76      78.823596      78.823596      114.15831    
Loop time of 4.26193 on 600 procs for 1000 steps with 758308 atoms

Performance: 101362.509 tau/day, 234.635 timesteps/s, 177.926 Matom-step/s
99.3% CPU use with 600 MPI tasks x 1 OpenMP threads

MPI task timing breakdown:
Section |  min time  |  avg time  |  max time  |%varavg| %total
---------------------------------------------------------------
Pair    | 0.52808    | 0.58896    | 0.69516    |   4.3 | 13.82
Bond    | 0.00096733 | 0.0075797  | 0.025448   |   6.8 |  0.18
Neigh   | 2.072      | 2.171      | 2.2668     |   3.4 | 50.94
Comm    | 0.7792     | 1.0063     | 1.2661     |  12.5 | 23.61
Output  | 0.00010443 | 0.00011891 | 0.00027224 |   0.0 |  0.00
Modify  | 0.28873    | 0.45139    | 0.60779    |  12.8 | 10.59
Other   |            | 0.03663    |            |       |  0.86

Nlocal:        1263.85 ave        2275 max         971 min
Histogram: 480 0 0 0 0 0 0 0 10 110
Nghost:        8349.44 ave       15148 max        6414 min
Histogram: 480 0 0 0 0 0 0 0 0 120
Neighs:        40010.9 ave       45268 max       36081 min
Histogram: 31 109 113 89 34 17 65 90 36 16

Total # of neighbors = 24006551
Ave neighs/atom = 31.658048
Ave special neighs/atom = 0.38890794
Neighbor list builds = 230
Dangerous builds = 0
Generated 0 of 10 mixed pair_coeff terms from geometric mixing rule
Last active /omp style is bond_style fene/omp
Setting up Verlet run ...
  Unit style    : lj
  Current step  : 1000
  Time step     : 0.005
Per MPI rank memory allocation (min/avg/max) = 10.24 | 11.91 | 17.96 Mbytes
   Step          Temp          PotEng         KinEng         TotEng         Press          Volume           Lx             Ly             Lz      
      1000   0.77831589    -0.54281268     1.1674723      0.62465961     1.7327288      709283.76      78.823596      78.823596      114.15831    
     10000   0.85279925    -0.15735834     1.2791972      1.1218389      1.0085382      775398.21      81.200338      81.200338      117.60049    
     20000   0.85744538    -0.14970604     1.2861664      1.1364603      1.0008235      777268.74      81.265579      81.265579      117.69498    
     30000   0.86037215    -0.14397142     1.2905565      1.1465851      0.99146115     778458.33      81.307017      81.307017      117.75499    
     40000   0.86369113    -0.13968468     1.295535       1.1558503      1.0014238      779078.51      81.328603      81.328603      117.78625    
     50000   0.86821615    -0.13308915     1.3023225      1.1692334      1.0037575      780091.25      81.363828      81.363828      117.83727    
     60000   0.86827445    -0.13405163     1.30241        1.1683583      0.98912458     780498.33      81.377978      81.377978      117.85776    
     70000   0.87034472    -0.13072095     1.3055154      1.1747944      1.0111065      780363.49      81.373292      81.373292      117.85097    
     80000   0.87332514    -0.13389714     1.309986       1.1760888      0.99391598     780820.58      81.389176      81.389176      117.87398    
     90000   0.87308842    -0.12921183     1.3096309      1.1804191      1.0103039      781122.97      81.399681      81.399681      117.88919    
    100000   0.87472663    -0.1289301      1.3120882      1.1831581      0.99762604     781370.44      81.408277      81.408277      117.90164    
    110000   0.8767999     -0.1274378      1.3151981      1.1877603      1.0005246      781643.01      81.417742      81.417742      117.91535    
    120000   0.87890565    -0.12674619     1.3183567      1.1916106      0.9982227      781690.56      81.419392      81.419392      117.91774    
    130000   0.87809215    -0.12315408     1.3171365      1.1939824      1.0012897      782356         81.44249       81.44249       117.95119    
    140000   0.88095863    -0.12030345     1.3214362      1.2011328      1.0044962      782706.62      81.454654      81.454654      117.96881    
    150000   0.88083694    -0.12080303     1.3212537      1.2004506      0.99825999     782773.88      81.456988      81.456988      117.97219    
    160000   0.88291672    -0.11842063     1.3243733      1.2059527      1.011502       782895.47      81.461205      81.461205      117.9783     
    170000   0.88373772    -0.11954055     1.3256048      1.2060643      1.0001883      782934.26      81.46255       81.46255       117.98025    
    180000   0.88323013    -0.1166155      1.3248434      1.2082279      0.99997885     783656.65      81.487597      81.487597      118.01652    
    190000   0.8858779     -0.11975885     1.3288151      1.2090563      1.0199485      782750.57      81.456179      81.456179      117.97102    
    200000   0.88612769    -0.11821255     1.3291898      1.2109772      1.0073467      783229.71      81.472796      81.472796      117.99508    
    201000   0.88443259    -0.11712213     1.3266471      1.209525       1.0085531      783227.66      81.472725      81.472725      117.99498    
Loop time of 649.799 on 600 procs for 200000 steps with 758308 atoms

Performance: 132964.246 tau/day, 307.788 timesteps/s, 233.398 Matom-step/s
99.4% CPU use with 600 MPI tasks x 1 OpenMP threads

MPI task timing breakdown:
Section |  min time  |  avg time  |  max time  |%varavg| %total
---------------------------------------------------------------
Pair    | 73.797     | 92.549     | 113.98     | 129.6 | 14.24
Bond    | 0.17221    | 1.4559     | 5.0135     |  92.2 |  0.22
Neigh   | 259.41     | 272.23     | 286.28     |  40.3 | 41.90
Comm    | 140.18     | 175.02     | 227.65     | 162.6 | 26.94
Output  | 0.039477   | 0.26871    | 0.55632    |  32.1 |  0.04
Modify  | 70.064     | 101.08     | 144.79     | 175.0 | 15.56
Other   |            | 7.183      |            |       |  1.11

Nlocal:        1263.85 ave        2297 max         911 min
Histogram: 275 205 0 0 0 0 0 0 68 52
Nghost:        7902.92 ave       14393 max        5728 min
Histogram: 300 180 0 0 0 0 0 0 0 120
Neighs:        36541.3 ave       45180 max       28837 min
Histogram: 76 84 52 64 69 29 25 71 104 26

Total # of neighbors = 21924805
Ave neighs/atom = 28.912797
Ave special neighs/atom = 0.38890794
Neighbor list builds = 34106
Dangerous builds = 0
System init for write_restart ...
Generated 0 of 10 mixed pair_coeff terms from geometric mixing rule
Last active /omp style is bond_style fene/omp
System init for write_data ...
Generated 0 of 10 mixed pair_coeff terms from geometric mixing rule
Last active /omp style is bond_style fene/omp
WARNING: Not all mixed pair coeffs generated from mixing. Use write_data with 'pair ij' option to store all pair coeffs. (src/write_data.cpp:364)
Total wall time: 0:11:31
======================================
Running post-processing...
======================================
Generating convergence plot...
Plot saved to ./output_plots/convergence_plots/slab_support_5beads_tall_3_1.0_1.4_200000_convergence.png
Generating stress profiles...
No stress data found for slab_support_5beads_tall_3_1.0_1.4_200000, skipping stress plots
No volume data found for slab_support_5beads_tall_3_1.0_1.4_200000, skipping volume fraction plots
Generating piston plots...
Error: Piston position file not found: ./output_files/piston_data/piston_position_slab_support_5beads_tall_3_1.0_1.4_200000.dat
Generating computational efficiency plot...
Found data file: ./data_files/slab_support_5beads_tall_3.data
Mobile atoms: 618410
Tracking info written to /jet/home/dpollard/Documents/lammps_work/tracking.txt
Saved /jet/home/dpollard/Documents/lammps_work/time_vs_atoms.png
Saved /jet/home/dpollard/Documents/lammps_work/time_vs_timesteps.png
======================================
Done! Results are in: /jet/home/dpollard/Documents/lammps_runs/slab_with_support_slab_support_5beads_tall_3_1.0_1.4_20260127_195522
======================================
