======================================
Working directory: /jet/home/dpollard/Documents/lammps_runs/slab_with_support_slab_support_tall_angle_7_1.0_1.0_20260206_165730
Trajectory directory (scratch): /ocean/projects/chm250028p/dpollard/lammps_trajectories/slab_with_support_slab_support_tall_angle_7_1.0_1.0_20260206_165730
======================================
Running LAMMPS in slab_with_support with:
  dataname=slab_support_tall_angle_7
  epsSS=1.0, epsSP=1.0
  nsteps=1000000, oldsteps=0, totsteps=1000000
SLURM tasks per node: 120
SLURM CPUs per task: 1
SLURM_GPUS_ON_NODE: 
GPUs allocated: 
Running CPU-only with 600 tasks
LAMMPS (22 Jul 2025)
OMP_NUM_THREADS environment is not set. Defaulting to 1 thread.
  using 1 OpenMP thread(s) per MPI task
using multi-threaded neighbor list subroutines
Reading data file ...
  orthogonal box = (0 0 0) to (89.6 89.6 147)
  6 by 10 by 10 MPI processor grid
  reading atoms ...
  1466603 atoms
  scanning bonds ...
  3 = max bonds/atom
  scanning angles ...
  6 = max angles/atom
  orthogonal box = (0 0 0) to (89.6 89.6 147)
  6 by 10 by 10 MPI processor grid
  reading bonds ...
  61440 bonds
  reading angles ...
  89790 angles
Finding 1-2 1-3 1-4 neighbors ...
  special bond factors lj:    0        0        0       
  special bond factors coul:  0        0        0       
     4 = max # of 1-2 neighbors
     4 = max # of 1-3 neighbors
     8 = max # of 1-4 neighbors
    12 = max # of special neighbors
  special bonds CPU = 0.193 seconds
  read_data CPU = 4.748 seconds
>>> is_restart = 0
>>> Previous    # of timesteps: 0
>>> Current     # of timesteps: 1000000
>>> Cumulative  # of timesteps: 1000000
54400 atoms in group polymer
1180139 atoms in group solvent
116032 atoms in group support
116032 atoms in group piston
1234539 atoms in group mobile
286464 atoms in group polymer_and_support
Finding 1-2 1-3 1-4 neighbors ...
  special bond factors lj:    0        1        1       
  special bond factors coul:  0        1        1       
     4 = max # of 1-2 neighbors
    12 = max # of special neighbors
  special bonds CPU = 0.072 seconds
Generated 0 of 10 mixed pair_coeff terms from geometric mixing rule
Last active /omp style is angle_style harmonic
Neighbor list info ...
  update: every = 1 steps, delay = 0 steps, check = yes
  max neighbors/atom: 2000, page size: 100000
  master list distance cutoff = 2.8
  ghost atom cutoff = 5
  binsize = 1.4, bins = 64 64 105
  1 neighbor lists, perpetual/occasional/extra = 1 0 0
  (1) pair lj/cut/omp, perpetual
      attributes: half, newton on, omp
      pair build: half/bin/newton/omp
      stencil: half/bin/3d
      bin: standard
Setting up cg style minimization ...
  Unit style    : lj
  Current step  : 0
Per MPI rank memory allocation (min/avg/max) = 15.62 | 17.96 | 26.48 Mbytes
   Step          Temp          E_pair         E_mol          TotEng         Press     
         0   0              1.2172646e+19  2.6738699      1.2172646e+19  6.050959e+19 
       645   0             -5.8042086      2.637185      -3.1670236      4.5059344    
Loop time of 8.47923 on 600 procs for 645 steps with 1466603 atoms

99.3% CPU use with 600 MPI tasks x 1 OpenMP threads

Minimization stats:
  Stopping criterion = energy tolerance
  Energy initial, next-to-last, final = 
    1.2172646317842e+19  -3.16670834335584  -3.16702362203062
  Force two-norm initial, final = 2.8436079e+28 1687.2317
  Force max component initial, final = 1.8073849e+28 403.35764
  Final line search alpha, max atom move = 0.00035157737 0.14181142
  Iterations, force evaluations = 645 705

MPI task timing breakdown:
Section |  min time  |  avg time  |  max time  |%varavg| %total
---------------------------------------------------------------
Pair    | 1.2277     | 1.4784     | 2.7413     |  12.2 | 17.44
Bond    | 0.0017989  | 0.012823   | 0.033016   |   8.6 |  0.15
Neigh   | 3.9553     | 4.157      | 4.3035     |   3.9 | 49.03
Comm    | 0.80915    | 1.4234     | 2.3324     |  22.2 | 16.79
Output  | 0          | 0          | 0          |   0.0 |  0.00
Modify  | 0.017274   | 0.032009   | 0.061368   |   5.1 |  0.38
Other   |            | 1.376      |            |       | 16.22

Nlocal:        2444.34 ave        4085 max        1927 min
Histogram: 334 146 0 0 0 0 0 0 6 114
Nghost:          12514 ave       22290 max        9616 min
Histogram: 480 0 0 0 0 0 0 0 0 120
Neighs:        97803.5 ave      115680 max       84593 min
Histogram: 38 107 122 71 38 42 28 86 64 4

Total # of neighbors = 58682087
Ave neighs/atom = 40.012251
Ave special neighs/atom = 0.083785455
Neighbor list builds = 214
Dangerous builds = 40
Generated 0 of 10 mixed pair_coeff terms from geometric mixing rule
Last active /omp style is angle_style harmonic
Setting up Verlet run ...
  Unit style    : lj
  Current step  : 0
  Time step     : 0.001
Per MPI rank memory allocation (min/avg/max) = 14.49 | 16.62 | 24.23 Mbytes
   Step          Temp          PotEng         KinEng         TotEng         Press          Volume           Lx             Ly             Lz      
         0   0.084176757   -3.1670236      0.12626505    -3.0407586      4.6105439      1180139.5      89.6           89.6           147          
      1000   0.58644095    -2.4951047      0.87966083    -1.6154438      9.2772961      1180139.5      89.6           89.6           147          
Loop time of 3.79209 on 600 procs for 1000 steps with 1466603 atoms

Performance: 22784.247 tau/day, 263.707 timesteps/s, 386.753 Matom-step/s
99.4% CPU use with 600 MPI tasks x 1 OpenMP threads

MPI task timing breakdown:
Section |  min time  |  avg time  |  max time  |%varavg| %total
---------------------------------------------------------------
Pair    | 0.98559    | 1.1791     | 1.424      |   9.3 | 31.09
Bond    | 0.0017642  | 0.010092   | 0.02399    |   7.6 |  0.27
Neigh   | 0.38613    | 0.4009     | 0.41529    |   1.2 | 10.57
Comm    | 1.0051     | 1.3109     | 1.6588     |  11.8 | 34.57
Output  | 0.0001223  | 0.00073402 | 0.0014133  |   0.0 |  0.02
Modify  | 0.13431    | 0.15351    | 0.19921    |   2.5 |  4.05
Other   |            | 0.7368     |            |       | 19.43

Nlocal:        2444.34 ave        4059 max        1947 min
Histogram: 429 51 0 0 0 0 0 0 1 119
Nghost:        12511.1 ave       22242 max        9672 min
Histogram: 480 0 0 0 0 0 0 0 0 120
Neighs:        97579.4 ave      112633 max       86008 min
Histogram: 26 83 124 95 55 47 35 69 56 10

Total # of neighbors = 58547669
Ave neighs/atom = 39.920598
Ave special neighs/atom = 0.083785455
Neighbor list builds = 23
Dangerous builds = 0
Generated 0 of 10 mixed pair_coeff terms from geometric mixing rule
Last active /omp style is angle_style harmonic
Setting up Verlet run ...
  Unit style    : lj
  Current step  : 0
  Time step     : 0.005
Per MPI rank memory allocation (min/avg/max) = 14.49 | 16.62 | 24.23 Mbytes
   Step          Temp          PotEng         KinEng         TotEng         Press          Volume           Lx             Ly             Lz      
         0   0.58644095    -2.4951047      0.87966083    -1.6154438      9.2772961      1180139.5      89.6           89.6           147          
      1000   0.82293414    -1.7756548      1.2344004     -0.54125439     1.345295       1477414.9      96.567514      96.567514      158.43108    
Loop time of 6.8086 on 600 procs for 1000 steps with 1466603 atoms

Performance: 63449.178 tau/day, 146.873 timesteps/s, 215.405 Matom-step/s
99.3% CPU use with 600 MPI tasks x 1 OpenMP threads

MPI task timing breakdown:
Section |  min time  |  avg time  |  max time  |%varavg| %total
---------------------------------------------------------------
Pair    | 0.91144    | 1.0285     | 1.1476     |   5.3 | 15.11
Bond    | 0.0027991  | 0.017329   | 0.039725   |   9.5 |  0.25
Neigh   | 3.4522     | 3.5808     | 3.7027     |   3.7 | 52.59
Comm    | 1.1439     | 1.4692     | 1.8712     |  14.1 | 21.58
Output  | 0.00011428 | 0.00013081 | 0.00016003 |   0.0 |  0.00
Modify  | 0.44234    | 0.66155    | 0.94943    |  13.7 |  9.72
Other   |            | 0.05108    |            |       |  0.75

Nlocal:        2444.34 ave        4059 max        1969 min
Histogram: 474 6 0 0 0 0 0 0 0 120
Nghost:        11182.2 ave       20067 max        8700 min
Histogram: 480 0 0 0 0 0 0 0 0 120
Neighs:        76807.1 ave       86427 max       70776 min
Histogram: 45 176 123 50 26 13 14 59 76 18

Total # of neighbors = 46084271
Ave neighs/atom = 31.422458
Ave special neighs/atom = 0.083785455
Neighbor list builds = 221
Dangerous builds = 0
Generated 0 of 10 mixed pair_coeff terms from geometric mixing rule
Last active /omp style is angle_style harmonic
Setting up Verlet run ...
  Unit style    : lj
  Current step  : 1000
  Time step     : 0.005
Per MPI rank memory allocation (min/avg/max) = 14.5 | 16.63 | 24.24 Mbytes
   Step          Temp          PotEng         KinEng         TotEng         Press          Volume           Lx             Ly             Lz      
      1000   0.82293414    -1.7756548      1.2344004     -0.54125439     1.345295       1477414.9      96.567514      96.567514      158.43108    
    100000   0.89200728    -1.2901191      1.33801        0.047890902    0.99828785     1666749.8      100.528        100.528        164.92875    
    200000   0.90140073    -1.2632759      1.3521002      0.088824276    1.0059433      1675629.4      100.7062       100.7062       165.22111    
    300000   0.90709486    -1.2483334      1.3606414      0.11230796     0.99805048     1680812        100.80992      100.80992      165.39128    
    400000   0.91055191    -1.2425535      1.3658269      0.12327339     0.99929071     1682692.8      100.84751      100.84751      165.45294    
    500000   0.91315908    -1.2339571      1.3697377      0.13578061     0.99765808     1686013.8      100.91381      100.91381      165.56172    
    600000   0.91374968    -1.23107        1.3706236      0.13955359     0.99631466     1686897.2      100.93143      100.93143      165.59063    
    700000   0.91541769    -1.2245911      1.3731256      0.14853446     1.0011055      1689002.7      100.97341      100.97341      165.65949    
    800000   0.91628856    -1.2234629      1.3744319      0.15096897     0.99523924     1689442.2      100.98216      100.98216      165.67386    
    900000   0.91547087    -1.2238618      1.3732054      0.14934359     1.0048995      1688814.8      100.96966      100.96966      165.65335    
   1000000   0.91691556    -1.2214271      1.3753724      0.15394526     0.99707724     1690047.5      100.99422      100.99422      165.69365    
   1001000   0.91600081    -1.2200359      1.3740003      0.15396435     1.0042943      1690162.3      100.99651      100.99651      165.6974     
Loop time of 5342.72 on 600 procs for 1000000 steps with 1466603 atoms

Performance: 80857.633 tau/day, 187.170 timesteps/s, 274.505 Matom-step/s
99.4% CPU use with 600 MPI tasks x 1 OpenMP threads

MPI task timing breakdown:
Section |  min time  |  avg time  |  max time  |%varavg| %total
---------------------------------------------------------------
Pair    | 782.67     | 841.61     | 912.94     | 133.6 | 15.75
Bond    | 2.704      | 15.424     | 50.344     | 428.1 |  0.29
Neigh   | 2438.6     | 2529.1     | 2625.8     |  99.5 | 47.34
Comm    | 966.86     | 1246.4     | 1578.8     | 422.8 | 23.33
Output  | 0.39789    | 0.70484    | 1.1778     |  32.3 |  0.01
Modify  | 441.51     | 659.79     | 890.47     | 429.0 | 12.35
Other   |            | 49.69      |            |       |  0.93

Nlocal:        2444.34 ave        4041 max        1986 min
Histogram: 480 0 0 0 0 0 0 0 0 120
Nghost:        10477.4 ave       18872 max        8216 min
Histogram: 480 0 0 0 0 0 0 0 0 120
Neighs:        67492.5 ave       74582 max       62837 min
Histogram: 12 109 181 116 13 4 27 72 59 7

Total # of neighbors = 40495524
Ave neighs/atom = 27.611783
Ave special neighs/atom = 0.083785455
Neighbor list builds = 175221
Dangerous builds = 0
System init for write_restart ...
Generated 0 of 10 mixed pair_coeff terms from geometric mixing rule
Last active /omp style is angle_style harmonic
System init for write_data ...
Generated 0 of 10 mixed pair_coeff terms from geometric mixing rule
Last active /omp style is angle_style harmonic
WARNING: Not all mixed pair coeffs generated from mixing. Use write_data with 'pair ij' option to store all pair coeffs. (src/write_data.cpp:364)
Total wall time: 1:29:48
======================================
Running post-processing...
======================================
Generating convergence plot...
Plot saved to ./output_plots/convergence_plots/slab_support_tall_angle_7_1.0_1.0_1000000_convergence.png
Generating stress profiles...
No stress data found for slab_support_tall_angle_7_1.0_1.0_1000000, skipping stress plots
No volume data found for slab_support_tall_angle_7_1.0_1.0_1000000, skipping volume fraction plots
Generating piston plots...
Error: Piston position file not found: ./output_files/piston_data/piston_position_slab_support_tall_angle_7_1.0_1.0_1000000.dat
Generating computational efficiency plot...
Found data file: ./data_files/slab_support_tall_angle_7.data
Mobile atoms: 1234535
Tracking info written to /jet/home/dpollard/Documents/lammps_work/tracking.txt
Saved /jet/home/dpollard/Documents/lammps_work/time_vs_atoms.png
Saved /jet/home/dpollard/Documents/lammps_work/time_vs_timesteps.png
======================================
Done! Results are in: /jet/home/dpollard/Documents/lammps_runs/slab_with_support_slab_support_tall_angle_7_1.0_1.0_20260206_165730
======================================
