======================================
Working directory: /jet/home/dpollard/Documents/lammps_runs/slab_with_support_slab_support_5beads_tall_4_1.0_1.05_20260212_205603
Trajectory directory (scratch): /ocean/projects/chm250028p/dpollard/lammps_trajectories/slab_with_support_slab_support_5beads_tall_4_1.0_1.05_20260212_205603
======================================
Running LAMMPS in slab_with_support with:
  dataname=slab_support_5beads_tall_4
  epsSS=1.0, epsSP=1.05
  nsteps=1000000, oldsteps=0, totsteps=1000000
SLURM tasks per node: 120
SLURM CPUs per task: 1
SLURM_GPUS_ON_NODE: 
GPUs allocated: 
Running CPU-only with 600 tasks
LAMMPS (22 Jul 2025)
OMP_NUM_THREADS environment is not set. Defaulting to 1 thread.
  using 1 OpenMP thread(s) per MPI task
using multi-threaded neighbor list subroutines
Reading data file ...
  orthogonal box = (0 0 0) to (66 66 113.4)
  5 by 8 by 15 MPI processor grid
  reading atoms ...
  722171 atoms
  scanning bonds ...
  3 = max bonds/atom
  orthogonal box = (0 0 0) to (66 66 113.4)
  5 by 8 by 15 MPI processor grid
  reading bonds ...
  115200 bonds
Finding 1-2 1-3 1-4 neighbors ...
  special bond factors lj:    0        0        0       
  special bond factors coul:  0        0        0       
     4 = max # of 1-2 neighbors
     4 = max # of 1-3 neighbors
     8 = max # of 1-4 neighbors
    12 = max # of special neighbors
  special bonds CPU = 0.177 seconds
  read_data CPU = 6.852 seconds
>>> is_restart = 0
>>> Previous    # of timesteps: 0
>>> Current     # of timesteps: 1000000
>>> Cumulative  # of timesteps: 1000000
101759 atoms in group polymer
493970 atoms in group solvent
63221 atoms in group support
63221 atoms in group piston
595729 atoms in group mobile
228201 atoms in group polymer_and_support
Finding 1-2 1-3 1-4 neighbors ...
  special bond factors lj:    0        1        1       
  special bond factors coul:  0        1        1       
     4 = max # of 1-2 neighbors
    12 = max # of special neighbors
  special bonds CPU = 0.044 seconds
Generated 0 of 10 mixed pair_coeff terms from geometric mixing rule
Last active /omp style is bond_style fene/omp
Neighbor list info ...
  update: every = 1 steps, delay = 0 steps, check = yes
  max neighbors/atom: 2000, page size: 100000
  master list distance cutoff = 2.8
  ghost atom cutoff = 5
  binsize = 1.4, bins = 48 48 81
  1 neighbor lists, perpetual/occasional/extra = 1 0 0
  (1) pair lj/cut/omp, perpetual
      attributes: half, newton on, omp
      pair build: half/bin/newton/omp
      stencil: half/bin/3d
      bin: standard
Setting up cg style minimization ...
  Unit style    : lj
  Current step  : 0
Per MPI rank memory allocation (min/avg/max) = 11.25 | 12.51 | 19.75 Mbytes
   Step          Temp          E_pair         E_mol          TotEng         Press     
         0   0              3.000002e+19   1615.3881      3.000002e+19   1.7543678e+20
      1562   0             -4.8863678      2.7953615     -2.0910063      22.113314    
Loop time of 10.5394 on 600 procs for 1562 steps with 722171 atoms

99.4% CPU use with 600 MPI tasks x 1 OpenMP threads

Minimization stats:
  Stopping criterion = energy tolerance
  Energy initial, next-to-last, final = 
    3.00000195977047e+19  -2.09079741519377  -2.09100629962804
  Force two-norm initial, final = 4.157284e+28 869.77081
  Force max component initial, final = 1.9995556e+28 253.41368
  Final line search alpha, max atom move = 0.00047016029 0.11914505
  Iterations, force evaluations = 1562 1679

MPI task timing breakdown:
Section |  min time  |  avg time  |  max time  |%varavg| %total
---------------------------------------------------------------
Pair    | 1.2786     | 1.9902     | 3.3764     |  31.1 | 18.88
Bond    | 0.0013324  | 0.015629   | 0.038647   |  10.1 |  0.15
Neigh   | 3.6821     | 3.884      | 4.3871     |   4.3 | 36.85
Comm    | 1.2336     | 2.0601     | 3.0497     |  25.2 | 19.55
Output  | 0          | 0          | 0          |   0.0 |  0.00
Modify  | 0.014126   | 0.025907   | 0.053366   |   4.9 |  0.25
Other   |            | 2.564      |            |       | 24.32

Nlocal:        1203.62 ave        2596 max         866 min
Histogram: 421 99 0 0 0 0 0 0 0 80
Nghost:        9407.07 ave       18675 max        7133 min
Histogram: 393 127 0 0 0 0 0 0 0 80
Neighs:        55715.4 ave       65582 max       41572 min
Histogram: 6 30 54 55 49 76 102 112 87 29

Total # of neighbors = 33429269
Ave neighs/atom = 46.289963
Ave special neighs/atom = 0.31903801
Neighbor list builds = 288
Dangerous builds = 8
Generated 0 of 10 mixed pair_coeff terms from geometric mixing rule
Last active /omp style is bond_style fene/omp
Setting up Verlet run ...
  Unit style    : lj
  Current step  : 0
  Time step     : 0.001
Per MPI rank memory allocation (min/avg/max) = 10.13 | 11.25 | 17.61 Mbytes
   Step          Temp          PotEng         KinEng         TotEng         Press          Volume           Lx             Ly             Lz      
         0   0.08249138    -2.0910063      0.1237369     -1.9672694      22.233913      493970.4       66             66             113.4        
      1000   0.56062832    -1.3676533      0.84094132    -0.52671202     27.82664       493970.4       66             66             113.4        
Loop time of 2.4862 on 600 procs for 1000 steps with 722171 atoms

Performance: 34751.847 tau/day, 402.220 timesteps/s, 290.472 Matom-step/s
99.4% CPU use with 600 MPI tasks x 1 OpenMP threads

MPI task timing breakdown:
Section |  min time  |  avg time  |  max time  |%varavg| %total
---------------------------------------------------------------
Pair    | 0.52059    | 0.69409    | 0.8161     |   7.7 | 27.92
Bond    | 0.00059571 | 0.0032636  | 0.0065924  |   3.6 |  0.13
Neigh   | 0.25149    | 0.26437    | 0.27175    |   1.1 | 10.63
Comm    | 0.6169     | 0.84059    | 1.1281     |  11.9 | 33.81
Output  | 0.00010841 | 0.00066227 | 0.0011703  |   0.0 |  0.03
Modify  | 0.063318   | 0.07674    | 0.10129    |   2.2 |  3.09
Other   |            | 0.6065     |            |       | 24.39

Nlocal:        1203.62 ave        2601 max         890 min
Histogram: 519 1 0 0 0 0 0 0 0 80
Nghost:        9408.45 ave       18659 max        7339 min
Histogram: 520 0 0 0 0 0 0 0 0 80
Neighs:        55591.4 ave       62848 max       43883 min
Histogram: 5 17 54 55 57 57 85 115 113 42

Total # of neighbors = 33354842
Ave neighs/atom = 46.186903
Ave special neighs/atom = 0.31903801
Neighbor list builds = 20
Dangerous builds = 0
Generated 0 of 10 mixed pair_coeff terms from geometric mixing rule
Last active /omp style is bond_style fene/omp
Setting up Verlet run ...
  Unit style    : lj
  Current step  : 0
  Time step     : 0.005
Per MPI rank memory allocation (min/avg/max) = 10.14 | 11.25 | 17.61 Mbytes
   Step          Temp          PotEng         KinEng         TotEng         Press          Volume           Lx             Ly             Lz      
         0   0.56062832    -1.3676533      0.84094132    -0.52671202     27.82664       493970.4       66             66             113.4        
      1000   0.78809104    -1.5930858      1.1821349     -0.41095086     1.6727968      704217         74.281237      74.281237      127.62867    
Loop time of 4.7374 on 600 procs for 1000 steps with 722171 atoms

Performance: 91189.189 tau/day, 211.086 timesteps/s, 152.440 Matom-step/s
99.3% CPU use with 600 MPI tasks x 1 OpenMP threads

MPI task timing breakdown:
Section |  min time  |  avg time  |  max time  |%varavg| %total
---------------------------------------------------------------
Pair    | 0.47392    | 0.54593    | 0.61568    |   4.1 | 11.52
Bond    | 0.00091955 | 0.0067115  | 0.01822    |   4.9 |  0.14
Neigh   | 2.6134     | 2.743      | 2.8188     |   3.7 | 57.90
Comm    | 0.73996    | 0.93189    | 1.2771     |  13.1 | 19.67
Output  | 0.00010051 | 0.00011617 | 0.00015851 |   0.0 |  0.00
Modify  | 0.27784    | 0.46985    | 0.66008    |  11.1 |  9.92
Other   |            | 0.03991    |            |       |  0.84

Nlocal:        1203.62 ave        2600 max         941 min
Histogram: 520 0 0 0 0 0 0 0 0 80
Nghost:        7776.99 ave       15998 max        6217 min
Histogram: 520 0 0 0 0 0 0 0 0 80
Neighs:        37399.1 ave       40582 max       33329 min
Histogram: 6 27 63 71 81 69 84 97 80 22

Total # of neighbors = 22439430
Ave neighs/atom = 31.072184
Ave special neighs/atom = 0.31903801
Neighbor list builds = 232
Dangerous builds = 0
Generated 0 of 10 mixed pair_coeff terms from geometric mixing rule
Last active /omp style is bond_style fene/omp
Setting up Verlet run ...
  Unit style    : lj
  Current step  : 1000
  Time step     : 0.005
Per MPI rank memory allocation (min/avg/max) = 10.14 | 11.25 | 17.61 Mbytes
   Step          Temp          PotEng         KinEng         TotEng         Press          Volume           Lx             Ly             Lz      
      1000   0.78809104    -1.5930858      1.1821349     -0.41095086     1.6727968      704217         74.281237      74.281237      127.62867    
     50000   0.87468348    -1.138555       1.3120234      0.17346843     1.0153774      775470.85      76.706492      76.706492      131.7957     
    100000   0.88310201    -1.1126101      1.3246512      0.21204106     0.99433952     779859.61      76.850926      76.850926      132.04386    
    150000   0.88696649    -1.0987588      1.3304479      0.23168914     1.0105245      781430.69      76.902498      76.902498      132.13247    
    200000   0.89113205    -1.0816031      1.3366962      0.25509317     0.9944985      784355.03      76.998309      76.998309      132.2971     
    250000   0.89499917    -1.075863       1.3424969      0.26663386     0.99602272     785278.44      77.028514      77.028514      132.34899    
    300000   0.89708387    -1.0668419      1.3456239      0.27878202     0.99882353     786895.79      77.08136       77.08136       132.43979    
    350000   0.89781254    -1.0624572      1.3467169      0.28425972     0.99883283     787244.48      77.092743      77.092743      132.45935    
    400000   0.9015087     -1.0583414      1.3522612      0.29391977     0.99559831     788218.92      77.124539      77.124539      132.51398    
    450000   0.90230723    -1.0545123      1.353459       0.29894665     1.0134332      788325.6       77.128018      77.128018      132.51996    
    500000   0.90313733    -1.0507674      1.3547041      0.30393672     1.008539       788976.28      77.149233      77.149233      132.55641    
    550000   0.9030031     -1.0514827      1.3545028      0.30302008     0.99248196     789415.98      77.163562      77.163562      132.58103    
    600000   0.90535329    -1.0450933      1.3580281      0.31293478     1.0060647      790055.79      77.184403      77.184403      132.61684    
    650000   0.90452552    -1.0413735      1.3567864      0.31541291     1.0009011      790490.37      77.198552      77.198552      132.64115    
    700000   0.90551383    -1.0426433      1.3582689      0.31562558     0.99937767     790389.46      77.195267      77.195267      132.6355     
    750000   0.90443211    -1.0414671      1.3566463      0.31517919     1.0088898      790433.78      77.19671       77.19671       132.63798    
    800000   0.9061731     -1.0385211      1.3592578      0.32073663     0.98855635     791306.54      77.225112      77.225112      132.68678    
    850000   0.90649336    -1.0382734      1.3597382      0.32146479     0.99110146     791232.56      77.222705      77.222705      132.68265    
    900000   0.90769517    -1.0396394      1.3615409      0.32190152     0.99446961     791199.27      77.221622      77.221622      132.68079    
    950000   0.90657781    -1.0349751      1.3598648      0.32488977     0.996961       791665.52      77.236788      77.236788      132.70684    
   1000000   0.90696172    -1.0330432      1.3604407      0.32739745     1.0127275      791929.78      77.245381      77.245381      132.72161    
   1001000   0.90817119    -1.0344002      1.3622549      0.32785468     0.99508876     792132.96      77.251986      77.251986      132.73296    
Loop time of 3469.29 on 600 procs for 1000000 steps with 722171 atoms

Performance: 124521.203 tau/day, 288.244 timesteps/s, 208.161 Matom-step/s
99.4% CPU use with 600 MPI tasks x 1 OpenMP threads

MPI task timing breakdown:
Section |  min time  |  avg time  |  max time  |%varavg| %total
---------------------------------------------------------------
Pair    | 369.33     | 427.14     | 499.74     | 205.5 | 12.31
Bond    | 0.86628    | 5.971      | 21.473     | 202.8 |  0.17
Neigh   | 1634.8     | 1726.7     | 1781.2     |  96.8 | 49.77
Comm    | 623.34     | 781.24     | 1081.7     | 385.8 | 22.52
Output  | 0.17372    | 0.55542    | 1.0615     |  37.3 |  0.02
Modify  | 294.71     | 488.03     | 645.82     | 349.3 | 14.07
Other   |            | 39.62      |            |       |  1.14

Nlocal:        1203.62 ave        2612 max         918 min
Histogram: 485 35 0 0 0 0 0 0 0 80
Nghost:        7312.82 ave       15319 max        5706 min
Histogram: 518 2 0 0 0 0 0 0 0 80
Neighs:        33514.2 ave       41905 max       28824 min
Histogram: 95 176 92 38 4 15 44 74 56 6

Total # of neighbors = 20108506
Ave neighs/atom = 27.844522
Ave special neighs/atom = 0.31903801
Neighbor list builds = 171822
Dangerous builds = 0
System init for write_restart ...
Generated 0 of 10 mixed pair_coeff terms from geometric mixing rule
Last active /omp style is bond_style fene/omp
System init for write_data ...
Generated 0 of 10 mixed pair_coeff terms from geometric mixing rule
Last active /omp style is bond_style fene/omp
WARNING: Not all mixed pair coeffs generated from mixing. Use write_data with 'pair ij' option to store all pair coeffs. (src/write_data.cpp:364)
Total wall time: 0:58:16
======================================
Running post-processing...
======================================
Generating convergence plot...
Plot saved to ./output_plots/convergence_plots/slab_support_5beads_tall_4_1.0_1.05_1000000_convergence.png
Generating stress profiles...
No stress data found for slab_support_5beads_tall_4_1.0_1.05_1000000, skipping stress plots
No volume data found for slab_support_5beads_tall_4_1.0_1.05_1000000, skipping volume fraction plots
Generating piston plots...
Error: Piston position file not found: ./output_files/piston_data/piston_position_slab_support_5beads_tall_4_1.0_1.05_1000000.dat
Generating computational efficiency plot...
Found data file: ./data_files/slab_support_5beads_tall_4.data
Mobile atoms: 595727
Tracking info written to /jet/home/dpollard/Documents/lammps_work/tracking.txt
Saved /jet/home/dpollard/Documents/lammps_work/time_vs_atoms.png
Saved /jet/home/dpollard/Documents/lammps_work/time_vs_timesteps.png
======================================
Done! Results are in: /jet/home/dpollard/Documents/lammps_runs/slab_with_support_slab_support_5beads_tall_4_1.0_1.05_20260212_205603
======================================
