======================================
Working directory: /jet/home/dpollard/Documents/lammps_runs/slab_with_support_slab_support_tall_angle_2_1.0_0.9_20260205_133954
Trajectory directory (scratch): /ocean/projects/chm250028p/dpollard/lammps_trajectories/slab_with_support_slab_support_tall_angle_2_1.0_0.9_20260205_133954
======================================
Running LAMMPS in slab_with_support with:
  dataname=slab_support_tall_angle_2
  epsSS=1.0, epsSP=0.9
  nsteps=700000, oldsteps=0, totsteps=700000
SLURM tasks per node: 120
SLURM CPUs per task: 1
SLURM_GPUS_ON_NODE: 
GPUs allocated: 
Running CPU-only with 600 tasks
LAMMPS (22 Jul 2025)
OMP_NUM_THREADS environment is not set. Defaulting to 1 thread.
  using 1 OpenMP thread(s) per MPI task
using multi-threaded neighbor list subroutines
Reading data file ...
  orthogonal box = (0 0 0) to (74 74 92)
  6 by 10 by 10 MPI processor grid
  reading atoms ...
  758698 atoms
  scanning bonds ...
  3 = max bonds/atom
  scanning angles ...
  6 = max angles/atom
  orthogonal box = (0 0 0) to (74 74 92)
  6 by 10 by 10 MPI processor grid
  reading bonds ...
  108800 bonds
  reading angles ...
  159754 angles
Finding 1-2 1-3 1-4 neighbors ...
  special bond factors lj:    0        0        0       
  special bond factors coul:  0        0        0       
     4 = max # of 1-2 neighbors
     4 = max # of 1-3 neighbors
     8 = max # of 1-4 neighbors
    12 = max # of special neighbors
  special bonds CPU = 0.144 seconds
  read_data CPU = 11.344 seconds
>>> is_restart = 0
>>> Previous    # of timesteps: 0
>>> Current     # of timesteps: 700000
>>> Cumulative  # of timesteps: 700000
96118 atoms in group polymer
503792 atoms in group solvent
79394 atoms in group support
79394 atoms in group piston
599910 atoms in group mobile
254906 atoms in group polymer_and_support
Finding 1-2 1-3 1-4 neighbors ...
  special bond factors lj:    0        1        1       
  special bond factors coul:  0        1        1       
     4 = max # of 1-2 neighbors
    12 = max # of special neighbors
  special bonds CPU = 0.048 seconds
Generated 0 of 10 mixed pair_coeff terms from geometric mixing rule
Last active /omp style is angle_style harmonic
Neighbor list info ...
  update: every = 1 steps, delay = 0 steps, check = yes
  max neighbors/atom: 2000, page size: 100000
  master list distance cutoff = 2.8
  ghost atom cutoff = 5
  binsize = 1.4, bins = 53 53 66
  1 neighbor lists, perpetual/occasional/extra = 1 0 0
  (1) pair lj/cut/omp, perpetual
      attributes: half, newton on, omp
      pair build: half/bin/newton/omp
      stencil: half/bin/3d
      bin: standard
Setting up cg style minimization ...
  Unit style    : lj
  Current step  : 0
Per MPI rank memory allocation (min/avg/max) = 12.86 | 15.07 | 23.11 Mbytes
   Step          Temp          E_pair         E_mol          TotEng         Press     
         0   0              1.8366238e+19  13115.943      1.8366238e+19  1.1063636e+20
      1484   0             -3.8815061      10.992711      7.1112053      27.909541    
Loop time of 10.3976 on 600 procs for 1484 steps with 758698 atoms

99.3% CPU use with 600 MPI tasks x 1 OpenMP threads

Minimization stats:
  Stopping criterion = energy tolerance
  Energy initial, next-to-last, final = 
    1.83662383918534e+19   7.11182848026736   7.11120534578705
  Force two-norm initial, final = 2.4337173e+28 5156.2493
  Force max component initial, final = 1.2587961e+28 2393.0606
  Final line search alpha, max atom move = 5.1258473e-05 0.12266463
  Iterations, force evaluations = 1484 1569

MPI task timing breakdown:
Section |  min time  |  avg time  |  max time  |%varavg| %total
---------------------------------------------------------------
Pair    | 1.116      | 1.8994     | 4.3863     |  58.0 | 18.27
Bond    | 0.003578   | 0.039002   | 0.17889    |  26.7 |  0.38
Neigh   | 3.4165     | 3.6286     | 3.7968     |   4.3 | 34.90
Comm    | 1.2477     | 2.4936     | 4.3034     |  36.5 | 23.98
Output  | 0          | 0          | 0          |   0.0 |  0.00
Modify  | 0.01291    | 0.025801   | 0.058366   |   6.0 |  0.25
Other   |            | 2.311      |            |       | 22.23

Nlocal:         1264.5 ave        2499 max         828 min
Histogram: 258 129 93 0 0 0 0 11 84 25
Nghost:        9878.01 ave       18798 max        6577 min
Histogram: 231 164 85 0 0 0 0 0 79 41
Neighs:        55702.8 ave       89159 max       35234 min
Histogram: 93 109 82 86 32 56 29 62 24 27

Total # of neighbors = 33421668
Ave neighs/atom = 44.051346
Ave special neighs/atom = 0.28680714
Neighbor list builds = 298
Dangerous builds = 12
Generated 0 of 10 mixed pair_coeff terms from geometric mixing rule
Last active /omp style is angle_style harmonic
Setting up Verlet run ...
  Unit style    : lj
  Current step  : 0
  Time step     : 0.001
Per MPI rank memory allocation (min/avg/max) = 11.74 | 13.75 | 21.23 Mbytes
   Step          Temp          PotEng         KinEng         TotEng         Press          Volume           Lx             Ly             Lz      
         0   0.07907096     7.1112053      0.11860628     7.2298116      28.028619      503792         74             74             92           
      1000   0.77814587     7.0017353      1.1672173      8.1689526      29.017131      503792         74             74             92           
Loop time of 2.4326 on 600 procs for 1000 steps with 758698 atoms

Performance: 35517.515 tau/day, 411.082 timesteps/s, 311.887 Matom-step/s
99.4% CPU use with 600 MPI tasks x 1 OpenMP threads

MPI task timing breakdown:
Section |  min time  |  avg time  |  max time  |%varavg| %total
---------------------------------------------------------------
Pair    | 0.42726    | 0.68293    | 1.0107     |  17.8 | 28.07
Bond    | 0.0016427  | 0.015554   | 0.055539   |  15.5 |  0.64
Neigh   | 0.35692    | 0.37301    | 0.38846    |   1.3 | 15.33
Comm    | 0.6923     | 0.89733    | 1.2524     |  13.9 | 36.89
Output  | 9.053e-05  | 0.00075714 | 0.0014133  |   0.0 |  0.03
Modify  | 0.059638   | 0.078369   | 0.10697    |   3.3 |  3.22
Other   |            | 0.3846     |            |       | 15.81

Nlocal:         1264.5 ave        2429 max         830 min
Histogram: 177 303 0 0 0 0 0 0 56 64
Nghost:        9878.78 ave       18432 max        6734 min
Histogram: 217 263 0 0 0 0 0 0 38 82
Neighs:        55188.6 ave       72325 max       37007 min
Histogram: 19 50 63 75 79 80 81 67 51 35

Total # of neighbors = 33113188
Ave neighs/atom = 43.644755
Ave special neighs/atom = 0.28680714
Neighbor list builds = 31
Dangerous builds = 0
Generated 0 of 10 mixed pair_coeff terms from geometric mixing rule
Last active /omp style is angle_style harmonic
Setting up Verlet run ...
  Unit style    : lj
  Current step  : 0
  Time step     : 0.005
Per MPI rank memory allocation (min/avg/max) = 11.74 | 13.75 | 21.23 Mbytes
   Step          Temp          PotEng         KinEng         TotEng         Press          Volume           Lx             Ly             Lz      
         0   0.77814587     7.0017353      1.1672173      8.1689526      29.017131      503792         74             74             92           
      1000   0.7807801      5.5493136      1.1711686      6.7204822      1.7034746      727405.3       83.638606      83.638606      103.98313    
Loop time of 4.61509 on 600 procs for 1000 steps with 758698 atoms

Performance: 93605.953 tau/day, 216.680 timesteps/s, 164.395 Matom-step/s
99.3% CPU use with 600 MPI tasks x 1 OpenMP threads

MPI task timing breakdown:
Section |  min time  |  avg time  |  max time  |%varavg| %total
---------------------------------------------------------------
Pair    | 0.43176    | 0.5373     | 0.62925    |   3.9 | 11.64
Bond    | 0.0025929  | 0.02389    | 0.075081   |  16.9 |  0.52
Neigh   | 2.4575     | 2.562      | 2.6511     |   3.2 | 55.51
Comm    | 0.73939    | 0.97561    | 1.2379     |  13.1 | 21.14
Output  | 0.00010646 | 0.0001256  | 0.00015763 |   0.0 |  0.00
Modify  | 0.30536    | 0.4785     | 0.65725    |  11.8 | 10.37
Other   |            | 0.03767    |            |       |  0.82

Nlocal:         1264.5 ave        2389 max         947 min
Histogram: 480 0 0 0 0 0 0 0 1 119
Nghost:        8129.04 ave       15196 max        6185 min
Histogram: 480 0 0 0 0 0 0 0 0 120
Neighs:        36825.2 ave       39563 max       33287 min
Histogram: 1 9 36 73 101 121 107 98 46 8

Total # of neighbors = 22095117
Ave neighs/atom = 29.122414
Ave special neighs/atom = 0.28680714
Neighbor list builds = 237
Dangerous builds = 0
Generated 0 of 10 mixed pair_coeff terms from geometric mixing rule
Last active /omp style is angle_style harmonic
Setting up Verlet run ...
  Unit style    : lj
  Current step  : 1000
  Time step     : 0.005
Per MPI rank memory allocation (min/avg/max) = 11.75 | 13.76 | 21.24 Mbytes
   Step          Temp          PotEng         KinEng         TotEng         Press          Volume           Lx             Ly             Lz      
      1000   0.7807801      5.5493136      1.1711686      6.7204822      1.7034746      727405.3       83.638606      83.638606      103.98313    
    100000   0.85605719     5.6601161      1.2840841      6.9442002      0.99630736     797222.88      86.233209      86.233209      107.20885    
    200000   0.86786566     5.6761781      1.3017968      6.9779748      0.99075554     802361.98      86.418106      86.418106      107.43873    
    300000   0.87403707     5.6881079      1.3110539      6.9991618      0.99516129     805323.47      86.524298      86.524298      107.57075    
    400000   0.87893229     5.6917054      1.3183967      7.0101021      1.0008197      806992.85      86.584043      86.584043      107.64503    
    500000   0.88183115     5.6932978      1.322745       7.0160427      0.99795695     808715.48      86.645607      86.645607      107.72157    
    600000   0.88328548     5.6960311      1.3249265      7.0209576      0.98962492     809859.35      86.686439      86.686439      107.77233    
    700000   0.88500816     5.6928094      1.3275105      7.0203199      1.0055878      809648.54      86.678917      86.678917      107.76298    
    701000   0.88649478     5.6929726      1.3297404      7.022713       1.0100173      809332.94      86.667653      86.667653      107.74897    
Loop time of 2334.95 on 600 procs for 700000 steps with 758698 atoms

Performance: 129510.281 tau/day, 299.792 timesteps/s, 227.452 Matom-step/s
99.3% CPU use with 600 MPI tasks x 1 OpenMP threads

MPI task timing breakdown:
Section |  min time  |  avg time  |  max time  |%varavg| %total
---------------------------------------------------------------
Pair    | 260.61     | 298.58     | 348.44     | 126.7 | 12.79
Bond    | 1.8094     | 16.252     | 42.871     | 312.5 |  0.70
Neigh   | 1045.1     | 1090.4     | 1139.7     |  74.8 | 46.70
Comm    | 436.99     | 568.98     | 734.9      | 326.7 | 24.37
Output  | 0.2775     | 0.49609    | 0.83004    |  25.2 |  0.02
Modify  | 218.99     | 335.1      | 473.69     | 337.3 | 14.35
Other   |            | 25.12      |            |       |  1.08

Nlocal:         1264.5 ave        2370 max         927 min
Histogram: 479 1 0 0 0 0 0 0 0 120
Nghost:         7696.6 ave       14457 max        5763 min
Histogram: 480 0 0 0 0 0 0 0 0 120
Neighs:        33260.7 ave       37944 max       29151 min
Histogram: 13 54 91 88 87 83 90 59 25 10

Total # of neighbors = 19956435
Ave neighs/atom = 26.303529
Ave special neighs/atom = 0.28680714
Neighbor list builds = 120767
Dangerous builds = 0
System init for write_restart ...
Generated 0 of 10 mixed pair_coeff terms from geometric mixing rule
Last active /omp style is angle_style harmonic
System init for write_data ...
Generated 0 of 10 mixed pair_coeff terms from geometric mixing rule
Last active /omp style is angle_style harmonic
WARNING: Not all mixed pair coeffs generated from mixing. Use write_data with 'pair ij' option to store all pair coeffs. (src/write_data.cpp:364)
Total wall time: 0:39:26
======================================
Running post-processing...
======================================
Generating convergence plot...
Plot saved to ./output_plots/convergence_plots/slab_support_tall_angle_2_1.0_0.9_700000_convergence.png
Generating stress profiles...
No stress data found for slab_support_tall_angle_2_1.0_0.9_700000, skipping stress plots
No volume data found for slab_support_tall_angle_2_1.0_0.9_700000, skipping volume fraction plots
Generating piston plots...
Error: Piston position file not found: ./output_files/piston_data/piston_position_slab_support_tall_angle_2_1.0_0.9_700000.dat
Generating computational efficiency plot...
Found data file: ./data_files/slab_support_tall_angle_2.data
Mobile atoms: 599906
Tracking info written to /jet/home/dpollard/Documents/lammps_work/tracking.txt
Saved /jet/home/dpollard/Documents/lammps_work/time_vs_atoms.png
Saved /jet/home/dpollard/Documents/lammps_work/time_vs_timesteps.png
======================================
Done! Results are in: /jet/home/dpollard/Documents/lammps_runs/slab_with_support_slab_support_tall_angle_2_1.0_0.9_20260205_133954
======================================
