======================================
Working directory: /jet/home/dpollard/Documents/lammps_runs/slab_with_support_slab_support_5beads_tall_3_1.5_1.4_20260117_210939
Trajectory directory (scratch): /ocean/projects/chm250028p/dpollard/lammps_trajectories/slab_with_support_slab_support_5beads_tall_3_1.5_1.4_20260117_210939
======================================
Running LAMMPS in slab_with_support with:
  dataname=slab_support_5beads_tall_3
  epsSS=1.5, epsSP=1.4
  nsteps=20000000, oldsteps=0, totsteps=20000000
SLURM tasks per node: 120
SLURM CPUs per task: 1
SLURM_GPUS_ON_NODE: 
GPUs allocated: 
Running CPU-only with 720 tasks
LAMMPS (22 Jul 2025)
OMP_NUM_THREADS environment is not set. Defaulting to 1 thread.
  using 1 OpenMP thread(s) per MPI task
using multi-threaded neighbor list subroutines
Reading data file ...
  orthogonal box = (0 0 0) to (69.6 69.6 100.8)
  9 by 8 by 10 MPI processor grid
  reading atoms ...
  758308 atoms
  scanning bonds ...
  3 = max bonds/atom
  orthogonal box = (0 0 0) to (69.6 69.6 100.8)
  9 by 8 by 10 MPI processor grid
  reading bonds ...
  147456 bonds
Finding 1-2 1-3 1-4 neighbors ...
  special bond factors lj:    0        0        0       
  special bond factors coul:  0        0        0       
     4 = max # of 1-2 neighbors
     4 = max # of 1-3 neighbors
     8 = max # of 1-4 neighbors
    12 = max # of special neighbors
  special bonds CPU = 0.158 seconds
  read_data CPU = 6.315 seconds
>>> is_restart = 0
>>> Previous    # of timesteps: 0
>>> Current     # of timesteps: 20000000
>>> Cumulative  # of timesteps: 20000000
130121 atoms in group polymer
488291 atoms in group solvent
69948 atoms in group support
69948 atoms in group piston
618412 atoms in group mobile
270017 atoms in group polymer_and_support
Finding 1-2 1-3 1-4 neighbors ...
  special bond factors lj:    0        1        1       
  special bond factors coul:  0        1        1       
     4 = max # of 1-2 neighbors
    12 = max # of special neighbors
  special bonds CPU = 0.161 seconds
Generated 0 of 10 mixed pair_coeff terms from geometric mixing rule
Last active /omp style is bond_style fene/omp
Neighbor list info ...
  update: every = 1 steps, delay = 0 steps, check = yes
  max neighbors/atom: 2000, page size: 100000
  master list distance cutoff = 2.8
  ghost atom cutoff = 5
  binsize = 1.4, bins = 50 50 72
  1 neighbor lists, perpetual/occasional/extra = 1 0 0
  (1) pair lj/cut/omp, perpetual
      attributes: half, newton on, omp
      pair build: half/bin/newton/omp
      stencil: half/bin/3d
      bin: standard
Setting up cg style minimization ...
  Unit style    : lj
  Current step  : 0
Per MPI rank memory allocation (min/avg/max) = 11.29 | 12.7 | 19.67 Mbytes
   Step          Temp          E_pair         E_mol          TotEng         Press     
         0   0              5.5323427e+19  17783.599      5.5323427e+19  3.4366531e+20
      3185   0             -6.0534919      4.384867      -1.6686249      45.463582    
Loop time of 20.2274 on 720 procs for 3185 steps with 758308 atoms

99.4% CPU use with 720 MPI tasks x 1 OpenMP threads

Minimization stats:
  Stopping criterion = energy tolerance
  Energy initial, next-to-last, final = 
    5.53234269850544e+19  -1.66848388633861  -1.66862490915719
  Force two-norm initial, final = 5.847124e+28 678.43879
  Force max component initial, final = 2.7517712e+28 161.97758
  Final line search alpha, max atom move = 0.00091724117 0.1485725
  Iterations, force evaluations = 3185 3563

MPI task timing breakdown:
Section |  min time  |  avg time  |  max time  |%varavg| %total
---------------------------------------------------------------
Pair    | 2.4556     | 3.8988     | 8.8797     |  53.1 | 19.27
Bond    | 0.0026859  | 0.034146   | 0.1307     |  19.1 |  0.17
Neigh   | 5.8229     | 6.1213     | 6.4266     |   5.6 | 30.26
Comm    | 2.0132     | 4.8746     | 8.5444     |  43.4 | 24.10
Output  | 0          | 0          | 0          |   0.0 |  0.00
Modify  | 0.02935    | 0.04828    | 0.091107   |   5.9 |  0.24
Other   |            | 5.25       |            |       | 25.96

Nlocal:        1053.21 ave        1887 max         802 min
Histogram: 576 0 0 0 0 0 0 0 23 121
Nghost:        9297.93 ave       16289 max        7186 min
Histogram: 576 0 0 0 0 0 0 0 0 144
Neighs:        50852.5 ave       57512 max       44504 min
Histogram: 51 100 73 44 68 110 72 114 72 16

Total # of neighbors = 36613810
Ave neighs/atom = 48.28356
Ave special neighs/atom = 0.38890794
Neighbor list builds = 647
Dangerous builds = 12
Generated 0 of 10 mixed pair_coeff terms from geometric mixing rule
Last active /omp style is bond_style fene/omp
Setting up Verlet run ...
  Unit style    : lj
  Current step  : 0
  Time step     : 0.001
Per MPI rank memory allocation (min/avg/max) = 10.19 | 11.8 | 17.42 Mbytes
   Step          Temp          PotEng         KinEng         TotEng         Press          Volume           Lx             Ly             Lz      
         0   0.081551535   -1.6686249      0.12232714    -1.5462978      45.59023       488291.33      69.6           69.6           100.8        
      1000   0.54363131    -0.9138218      0.81544589    -0.098375918    51.685728      488291.33      69.6           69.6           100.8        
Loop time of 2.11819 on 720 procs for 1000 steps with 758308 atoms

Performance: 40789.452 tau/day, 472.100 timesteps/s, 357.997 Matom-step/s
99.4% CPU use with 720 MPI tasks x 1 OpenMP threads

MPI task timing breakdown:
Section |  min time  |  avg time  |  max time  |%varavg| %total
---------------------------------------------------------------
Pair    | 0.55476    | 0.63383    | 0.72039    |   4.9 | 29.92
Bond    | 0.00057275 | 0.0033499  | 0.0073475  |   4.7 |  0.16
Neigh   | 0.16514    | 0.17334    | 0.18133    |   1.1 |  8.18
Comm    | 0.75908    | 0.93635    | 1.2222     |  10.9 | 44.20
Output  | 9.7072e-05 | 0.00082608 | 0.0012444  |   0.0 |  0.04
Modify  | 0.058467   | 0.066696   | 0.082635   |   1.9 |  3.15
Other   |            | 0.3038     |            |       | 14.34

Nlocal:        1053.21 ave        1884 max         810 min
Histogram: 576 0 0 0 0 0 0 0 16 128
Nghost:        9297.05 ave       16300 max        7223 min
Histogram: 576 0 0 0 0 0 0 0 0 144
Neighs:        50788.9 ave       57280 max       45042 min
Histogram: 38 107 89 53 74 124 57 125 38 15

Total # of neighbors = 36568001
Ave neighs/atom = 48.223151
Ave special neighs/atom = 0.38890794
Neighbor list builds = 19
Dangerous builds = 0
Generated 0 of 10 mixed pair_coeff terms from geometric mixing rule
Last active /omp style is bond_style fene/omp
Setting up Verlet run ...
  Unit style    : lj
  Current step  : 0
  Time step     : 0.005
Per MPI rank memory allocation (min/avg/max) = 10.19 | 11.8 | 17.42 Mbytes
   Step          Temp          PotEng         KinEng         TotEng         Press          Volume           Lx             Ly             Lz      
         0   0.54363131    -0.9138218      0.81544589    -0.098375918    51.685728      488291.33      69.6           69.6           100.8        
      1000   0.7918213     -2.5385177      1.1877304     -1.3507873      1.3086536      687414.58      78.005007      78.005007      112.97277    
Loop time of 3.91613 on 720 procs for 1000 steps with 758308 atoms

Performance: 110312.963 tau/day, 255.354 timesteps/s, 193.637 Matom-step/s
99.3% CPU use with 720 MPI tasks x 1 OpenMP threads

MPI task timing breakdown:
Section |  min time  |  avg time  |  max time  |%varavg| %total
---------------------------------------------------------------
Pair    | 0.42351    | 0.49003    | 0.59008    |   4.9 | 12.51
Bond    | 0.00089645 | 0.006353   | 0.021285   |   6.7 |  0.16
Neigh   | 1.714      | 1.7885     | 1.8622     |   3.2 | 45.67
Comm    | 0.78026    | 0.98192    | 1.2442     |  11.7 | 25.07
Output  | 0.00010212 | 0.00011901 | 0.00026919 |   0.0 |  0.00
Modify  | 0.44138    | 0.61339    | 0.79619    |  11.1 | 15.66
Other   |            | 0.03581    |            |       |  0.91

Nlocal:        1053.21 ave        1885 max         814 min
Histogram: 576 0 0 0 0 0 0 0 6 138
Nghost:        7702.17 ave       13830 max        5966 min
Histogram: 576 0 0 0 0 0 0 0 0 144
Neighs:        34257.7 ave       38727 max       30709 min
Histogram: 11 99 152 119 44 49 144 59 20 23

Total # of neighbors = 24665528
Ave neighs/atom = 32.527058
Ave special neighs/atom = 0.38890794
Neighbor list builds = 223
Dangerous builds = 0
Generated 0 of 10 mixed pair_coeff terms from geometric mixing rule
Last active /omp style is bond_style fene/omp
Setting up Verlet run ...
  Unit style    : lj
  Current step  : 1000
  Time step     : 0.005
Per MPI rank memory allocation (min/avg/max) = 10.19 | 11.81 | 17.43 Mbytes
   Step          Temp          PotEng         KinEng         TotEng         Press          Volume           Lx             Ly             Lz      
      1000   0.7918213     -2.5385177      1.1877304     -1.3507873      1.3086536      687414.58      78.005007      78.005007      112.97277    
    100000   0.87614186    -2.1532061      1.3142111     -0.83899503     1.0103644      719206.41      79.189467      79.189467      114.68819    
    200000   0.88403749    -2.123024       1.3260545     -0.79696953     0.99952484     721749.93      79.28271       79.28271       114.82323    
    300000   0.89047954    -2.1122746      1.3357176     -0.77655709     1.0071496      722730.53      79.318599      79.318599      114.87521    
    400000   0.89408359    -2.1041636      1.3411236     -0.76304002     0.98529796     723689.77      79.353676      79.353676      114.92601    
    500000   0.89654875    -2.0978893      1.3448214     -0.75306793     0.9928596      724314.75      79.376512      79.376512      114.95909    
    600000   0.89989315    -2.0949133      1.3498379     -0.74507537     0.96292825     724848.47      79.396004      79.396004      114.98732    
    700000   0.89893943    -2.0918419      1.3484074     -0.74343455     0.99476197     724826.21      79.395191      79.395191      114.98614    
    800000   0.90136873    -2.0921338      1.3520513     -0.74008253     0.99452817     725050.44      79.403377      79.403377      114.99799    
    900000   0.9012741     -2.0902617      1.3519094     -0.73835231     0.996387       724968.01      79.400368      79.400368      114.99364    
   1000000   0.9008536     -2.092189       1.3512786     -0.74091036     0.99439178     725044.21      79.40315       79.40315       114.99767    
   1100000   0.90091111    -2.0932237      1.3513649     -0.74185882     1.0075295      724899.79      79.397878      79.397878      114.99003    
   1200000   0.90211234    -2.088003       1.3531667     -0.73483626     0.98927028     725478.02      79.418983      79.418983      115.0206     
   1300000   0.90283138    -2.0885498      1.3542453     -0.73430452     1.0017356      725326.69      79.413461      79.413461      115.0126     
   1400000   0.90291957    -2.0897387      1.3543776     -0.73536117     0.99620758     725332.09      79.413658      79.413658      115.01288    
   1500000   0.90185648    -2.0916449      1.3527829     -0.73886194     0.98804029     725357.35      79.41458       79.41458       115.01422    
   1600000   0.90332543    -2.0927651      1.3549864     -0.73777875     1.0026154      725002.34      79.401622      79.401622      114.99545    
   1700000   0.90316763    -2.0926911      1.3547497     -0.73794142     1.0104467      725044.29      79.403153      79.403153      114.99767    
   1800000   0.90340659    -2.0941582      1.3551081     -0.73905008     0.98974255     725112.18      79.405631      79.405631      115.00126    
   1900000   0.90341229    -2.094496       1.3551166     -0.73937934     1.0036958      724974.75      79.400614      79.400614      114.99399    
   2000000   0.90389338    -2.0944163      1.3558383     -0.73857798     1.0035227      725085.5       79.404658      79.404658      114.99985    
   2100000   0.90274023    -2.0973768      1.3541086     -0.74326821     1.0140964      724621.13      79.387702      79.387702      114.97529    
   2200000   0.90177474    -2.0960061      1.3526603     -0.74334582     0.99066247     725019.8       79.402259      79.402259      114.99638    
   2300000   0.90343883    -2.0989236      1.3551565     -0.74376719     0.9853437      724813.81      79.394738      79.394738      114.98548    
   2400000   0.90470114    -2.0994253      1.3570499     -0.74237538     1.0048073      724776.66      79.393382      79.393382      114.98352    
   2500000   0.90254649    -2.0944313      1.3538179     -0.74061337     1.0120951      724882.91      79.397262      79.397262      114.98914    
   2600000   0.90205404    -2.097384       1.3530793     -0.74430472     1.0070333      724827.72      79.395246      79.395246      114.98622    
   2700000   0.90171032    -2.1008328      1.3525637     -0.74826906     1.0082489      724531.15      79.384416      79.384416      114.97053    
   2800000   0.9036965     -2.0977625      1.355543      -0.74221951     0.97726525     725129.67      79.40627       79.40627       115.00218    
   2900000   0.90511382    -2.0998507      1.3576689     -0.74218172     1.0019898      724686.5       79.39009       79.39009       114.97875    
   3000000   0.90404481    -2.0982797      1.3560654     -0.74221426     0.98909578     724899.88      79.397881      79.397881      114.99003    
   3100000   0.90260303    -2.1012599      1.3539028     -0.7473571      0.98563742     724735.9       79.391894      79.391894      114.98136    
   3200000   0.90190756    -2.0996097      1.3528596     -0.74675017     0.99396623     724831         79.395366      79.395366      114.98639    
   3300000   0.90333154    -2.099285       1.3549955     -0.74428947     1.0090645      724723.43      79.391438      79.391438      114.9807     
   3400000   0.90441466    -2.0988265      1.3566202     -0.7422063      1.0053801      724803.51      79.394362      79.394362      114.98494    
   3500000   0.9035281     -2.1008731      1.3552904     -0.7455827      0.99466309     724848.14      79.395992      79.395992      114.9873     
   3600000   0.90349829    -2.0995705      1.3552457     -0.74432483     0.9964498      724780.06      79.393506      79.393506      114.9837     
   3700000   0.90363424    -2.1009617      1.3554496     -0.74551216     0.99141828     724678         79.389779      79.389779      114.9783     
   3800000   0.90248198    -2.0992764      1.3537212     -0.74555523     0.99982994     724771.13      79.39318       79.39318       114.98323    
   3900000   0.90306743    -2.099464       1.3545994     -0.74486461     0.99708275     724800.95      79.394269      79.394269      114.9848     
   4000000   0.90334737    -2.1017399      1.3550193     -0.74672064     1.0069851      724520.85      79.38404       79.38404       114.96999    
   4100000   0.90233084    -2.1003518      1.3534945     -0.74685736     1.0293047      724416.5       79.380229      79.380229      114.96447    
   4200000   0.90303254    -2.0991593      1.354547      -0.7446123      0.98179658     725013.7       79.402036      79.402036      114.99605    
   4300000   0.90502506    -2.1020125      1.3575358     -0.74447672     1.0228569      724370.85      79.378562      79.378562      114.96205    
   4400000   0.90287906    -2.1020721      1.3543168     -0.74775525     1.0128233      724494.24      79.383068      79.383068      114.96858    
   4500000   0.90294364    -2.101676       1.3544137     -0.74726229     0.99351082     724621.88      79.38773       79.38773       114.97533    
   4600000   0.90338289    -2.1009994      1.3550725     -0.74592684     1.0081759      724639.64      79.388378      79.388378      114.97627    
   4700000   0.90241834    -2.1019733      1.3536257     -0.74834756     0.98489607     724779.84      79.393498      79.393498      114.98369    
   4800000   0.9034783     -2.1020803      1.3552157     -0.74686459     1.0033645      724490.18      79.38292       79.38292       114.96837    
   4900000   0.90300358    -2.1004263      1.3545036     -0.74592267     0.98598211     724732.74      79.391778      79.391778      114.9812     
   5000000   0.90415415    -2.098736       1.3562294     -0.74250656     0.99419327     724882.86      79.397259      79.397259      114.98913    
   5100000   0.90275718    -2.09999        1.354134      -0.745856       1.0005356      724655.87      79.388971      79.388971      114.97713    
   5200000   0.90178285    -2.1022847      1.3526725     -0.74961217     1.0073195      724497.4       79.383184      79.383184      114.96875    
   5300000   0.90415912    -2.099653       1.3562369     -0.74341608     1.0065603      724863.14      79.39654       79.39654       114.98809    
   5400000   0.90264363    -2.1008127      1.3539637     -0.746849       1.0146451      724439.88      79.381083      79.381083      114.96571    
   5500000   0.90346879    -2.1010146      1.3552014     -0.7458132      1.0136374      724751.11      79.392449      79.392449      114.98217    
   5600000   0.90066088    -2.1002172      1.3509895     -0.74922768     0.98817344     724867.73      79.396707      79.396707      114.98833    
   5700000   0.90359333    -2.1005498      1.3553882     -0.74516155     1.005998       724576.42      79.38607       79.38607       114.97293    
   5800000   0.90083531    -2.1000324      1.3512512     -0.74878124     1.0034725      724665.43      79.38932       79.38932       114.97764    
   5900000   0.90272091    -2.0980927      1.3540796     -0.74401312     0.98948975     724935.36      79.399176      79.399176      114.99191    
   6000000   0.90359064    -2.0984526      1.3553842     -0.7430684      1.0073712      724660.61      79.389144      79.389144      114.97738    
   6100000   0.90171993    -2.0990408      1.3525781     -0.74646267     1.0073456      724732.14      79.391756      79.391756      114.98116    
   6200000   0.90283932    -2.102969       1.3542572     -0.74871184     0.99179447     724577.89      79.386124      79.386124      114.97301    
   6300000   0.90536384    -2.101733       1.358044      -0.74368902     0.99529689     724703.13      79.390697      79.390697      114.97963    
   6400000   0.90302017    -2.0987282      1.3545285     -0.74419971     0.99015282     724890.04      79.397522      79.397522      114.98951    
   6500000   0.90357204    -2.1019159      1.3553563     -0.74655967     1.0260776      724232.37      79.373503      79.373503      114.95473    
   6600000   0.90149682    -2.1000948      1.3522434     -0.74785139     1.0132858      724490.48      79.382931      79.382931      114.96838    
   6700000   0.9027546     -2.0983072      1.3541301     -0.74417706     1.0012804      724914.09      79.3984        79.3984        114.99079    
   6800000   0.90472788    -2.1030974      1.35709       -0.74600733     0.9871806      724644.49      79.388556      79.388556      114.97653    
   6900000   0.90496185    -2.1052082      1.357441      -0.74776722     1.0087495      724302.05      79.376048      79.376048      114.95841    
   7000000   0.90353384    -2.1023987      1.355299      -0.74709974     1.0061883      724471.25      79.382229      79.382229      114.96737    
   7100000   0.90311736    -2.1021629      1.3546743     -0.74748869     1.009946       724420.46      79.380373      79.380373      114.96468    
   7200000   0.90194927    -2.1046012      1.3529221     -0.7516791      0.98518751     724585.76      79.386411      79.386411      114.97342    
   7300000   0.90326053    -2.1024116      1.354889      -0.7475226      1.0074695      724480.73      79.382575      79.382575      114.96787    
   7400000   0.90217698    -2.1026264      1.3532637     -0.74936273     1.0054264      724492.14      79.382992      79.382992      114.96847    
   7500000   0.9020567     -2.0994779      1.3530833     -0.74639467     0.99285681     724815.75      79.394809      79.394809      114.98559    
   7600000   0.90359283    -2.1041523      1.3553875     -0.74876481     0.97879218     724576.79      79.386083      79.386083      114.97295    
   7700000   0.90240724    -2.1050916      1.3536091     -0.75148249     0.99519268     724438.57      79.381035      79.381035      114.96564    
   7800000   0.90289825    -2.1009997      1.3543456     -0.74665414     0.99459269     724796.31      79.394099      79.394099      114.98456    
   7900000   0.90191496    -2.1000087      1.3528707     -0.74713807     0.99479778     724872.65      79.396887      79.396887      114.98859    
   8000000   0.9042705     -2.1044272      1.356404      -0.74802325     1.0107408      724367.7       79.378447      79.378447      114.96189    
   8100000   0.90379011    -2.1007538      1.3556834     -0.74507046     0.99633989     724734.57      79.391845      79.391845      114.98129    
   8200000   0.90398538    -2.0995686      1.3559763     -0.7435923      1.0105434      724619.62      79.387647      79.387647      114.97521    
   8300000   0.90251386    -2.1027316      1.353769      -0.74896262     1.0260414      724227.11      79.373311      79.373311      114.95445    
   8400000   0.9041411     -2.1031254      1.3562099     -0.74691549     1.0128063      724349.77      79.377792      79.377792      114.96094    
   8500000   0.90348662    -2.1012988      1.3552281     -0.7460707      0.99577915     724632.75      79.388127      79.388127      114.97591    
   8600000   0.90393648    -2.1002308      1.3559029     -0.7443279      1.0022584      724599.12      79.386899      79.386899      114.97413    
   8700000   0.90155385    -2.0980929      1.352329      -0.74576392     1.0147421      724731.15      79.39172       79.39172       114.98111    
   8800000   0.90399684    -2.103954       1.3559935     -0.7479605      1.0060793      724442.04      79.381162      79.381162      114.96582    
   8900000   0.90434752    -2.1034038      1.3565195     -0.74688436     1.02041        724240.35      79.373794      79.373794      114.95515    
   9000000   0.9035302     -2.1032383      1.3552935     -0.74794482     1.0129379      724324.5       79.376868      79.376868      114.9596     
   9100000   0.90491063    -2.1000827      1.3573641     -0.74271853     1.0189301      724519.88      79.384005      79.384005      114.96994    
   9200000   0.90213152    -2.099462       1.3531955     -0.74626654     1.0049214      724751.42      79.39246       79.39246       114.98218    
   9300000   0.90247407    -2.1014693      1.3537093     -0.74775994     1.0007558      724625.6       79.387866      79.387866      114.97553    
   9400000   0.9028469     -2.0999881      1.3542686     -0.74571955     0.99502352     724883.39      79.397279      79.397279      114.98916    
   9500000   0.9028654     -2.1021499      1.3542963     -0.74785363     0.99592149     724670.4       79.389502      79.389502      114.9779     
   9600000   0.90287292    -2.1020608      1.3543076     -0.7477532      0.96373941     724936.75      79.399227      79.399227      114.99198    
   9700000   0.90481056    -2.1025865      1.3572141     -0.74537246     1.004459       724454.8       79.381628      79.381628      114.9665     
   9800000   0.90394972    -2.1016601      1.3559228     -0.74573733     1.0027334      724571.9       79.385905      79.385905      114.97269    
   9900000   0.90432198    -2.1014995      1.3564812     -0.74501831     1.0063968      724573.3       79.385956      79.385956      114.97276    
  10000000   0.90385309    -2.1017936      1.3557778     -0.74601571     1.0089675      724580.3       79.386211      79.386211      114.97313    
  10100000   0.90154006    -2.1000302      1.3523083     -0.74772195     1.0051672      724561.99      79.385543      79.385543      114.97217    
  10200000   0.90384402    -2.1029354      1.3557642     -0.74717111     0.99532861     724490.66      79.382938      79.382938      114.96839    
  10300000   0.90399409    -2.1041331      1.3559893     -0.74814371     0.98486251     724535.53      79.384576      79.384576      114.97077    
  10400000   0.90362959    -2.102504       1.3554426     -0.7470614      0.9905752      724619.48      79.387642      79.387642      114.97521    
  10500000   0.90203973    -2.1032107      1.3530578     -0.75015287     1.0121181      724332.09      79.377146      79.377146      114.96       
  10600000   0.90366003    -2.1005514      1.3554883     -0.74506314     0.99467999     724748.41      79.392351      79.392351      114.98203    
  10700000   0.90517311    -2.100295       1.3577579     -0.74253711     0.98577994     724991.49      79.401226      79.401226      114.99488    
  10800000   0.90149582    -2.1011102      1.3522419     -0.7488683      0.97871096     724903.79      79.398024      79.398024      114.99024    
  10900000   0.90453642    -2.0993815      1.3568028     -0.74257862     1.0121891      724667.24      79.389386      79.389386      114.97773    
  11000000   0.90253823    -2.1005004      1.3538056     -0.74669482     1.0044779      724558.21      79.385405      79.385405      114.97197    
  11100000   0.9037574     -2.0978756      1.3556343     -0.74224132     0.9930095      724825.36      79.39516       79.39516       114.98609    
  11200000   0.90364505    -2.1059712      1.3554658     -0.75050545     0.98679346     724396.6       79.379502      79.379502      114.96342    
  11300000   0.90154962    -2.1016308      1.3523226     -0.74930815     1.0090089      724473.81      79.382322      79.382322      114.9675     
  11400000   0.90201018    -2.102665       1.3530135     -0.74965153     1.0122703      724270.26      79.374887      79.374887      114.95673    
  11500000   0.90295284    -2.1021343      1.3544275     -0.7477068      0.98910429     724677.56      79.389763      79.389763      114.97828    
  11600000   0.90308841    -2.1026925      1.3546308     -0.74806171     1.002178       724543.92      79.384883      79.384883      114.97121    
  11700000   0.90259336    -2.0991065      1.3538883     -0.74521822     0.98810301     724947.85      79.399632      79.399632      114.99257    
  11800000   0.90216501    -2.0999857      1.3532457     -0.74674        1.0029098      724791.63      79.393929      79.393929      114.98431    
  11900000   0.90219855    -2.1011949      1.353296      -0.74789888     0.99017141     724737.17      79.39194       79.39194       114.98143    
  12000000   0.90440216    -2.1026635      1.3566014     -0.74606207     0.99619774     724601.69      79.386993      79.386993      114.97427    
  12100000   0.90407024    -2.1007786      1.3561036     -0.74467503     0.99265893     724759.71      79.392763      79.392763      114.98262    
  12200000   0.90233102    -2.1064218      1.3534947     -0.75292711     0.9983168      724345.38      79.377631      79.377631      114.96071    
  12300000   0.90195234    -2.1013636      1.3529267     -0.74843687     0.9970785      724646.36      79.388624      79.388624      114.97663    
  12400000   0.90415225    -2.1023919      1.3562266     -0.74616528     0.99228186     724603.2       79.387048      79.387048      114.97435    
  12500000   0.90311203    -2.1031451      1.3546663     -0.74847885     1.0152161      724395.73      79.37947       79.37947       114.96337    
  12600000   0.90331334    -2.1013696      1.3549682     -0.74640138     0.99832022     724755.28      79.392601      79.392601      114.98239    
  12700000   0.90219448    -2.1033192      1.3532899     -0.75002927     1.0124531      724423.9       79.380499      79.380499      114.96486    
  12800000   0.90223772    -2.1045241      1.3533548     -0.75116926     1.0021193      724461.09      79.381858      79.381858      114.96683    
  12900000   0.90198589    -2.101037       1.3529771     -0.74805999     1.0030393      724731.41      79.39173       79.39173       114.98113    
  13000000   0.90381355    -2.102657       1.3557185     -0.74693848     0.99692741     724702.51      79.390674      79.390674      114.9796     
  13100000   0.90280731    -2.1012486      1.3542092     -0.74703939     1.0007807      724567.96      79.385761      79.385761      114.97248    
  13200000   0.90385955    -2.0998604      1.3557875     -0.74407284     1.0118237      724543.32      79.384861      79.384861      114.97118    
  13300000   0.90263408    -2.1050186      1.3539493     -0.75106922     1.0052239      724322.01      79.376777      79.376777      114.95947    
  13400000   0.90323282    -2.0997203      1.3548474     -0.74487285     0.98823767     724888.39      79.397462      79.397462      114.98943    
  13500000   0.90240295    -2.0975661      1.3536026     -0.74396351     0.9919896      725074.04      79.404239      79.404239      114.99924    
  13600000   0.90270884    -2.100258       1.3540615     -0.74619652     0.98758321     724744.99      79.392226      79.392226      114.98184    
  13700000   0.90301053    -2.1021083      1.354514      -0.74759432     0.99325375     724501.93      79.383349      79.383349      114.96899    
  13800000   0.90338177    -2.100828       1.3550709     -0.74575714     0.99235024     724785.25      79.393696      79.393696      114.98397    
  13900000   0.90311939    -2.1004075      1.3546773     -0.74573018     1.0092495      724609.98      79.387295      79.387295      114.9747     
  14000000   0.90288177    -2.1022596      1.3543209     -0.74793878     0.99097722     724545.34      79.384935      79.384935      114.97128    
  14100000   0.90333819    -2.0999504      1.3550055     -0.74494492     0.99553055     724674.85      79.389664      79.389664      114.97813    
  14200000   0.90278432    -2.1029136      1.3541747     -0.7487389      0.9927253      724646.24      79.388619      79.388619      114.97662    
  14300000   0.90330765    -2.1034628      1.3549597     -0.74850315     0.9990444      724452.09      79.381529      79.381529      114.96635    
  14400000   0.90192929    -2.1037866      1.3528922     -0.75089445     1.0141817      724276.01      79.375097      79.375097      114.95704    
  14500000   0.90257235    -2.1006231      1.3538567     -0.74676636     1.0060999      724569.26      79.385808      79.385808      114.97255    
  14600000   0.90297689    -2.0991619      1.3544635     -0.74469838     1.0098213      724622.06      79.387736      79.387736      114.97534    
  14700000   0.90374697    -2.1004317      1.3556187     -0.74481308     0.99139685     724875.21      79.39698       79.39698       114.98873    
  14800000   0.90299426    -2.1001065      1.3544896     -0.74561692     0.99236567     724741.61      79.392102      79.392102      114.98167    
  14900000   0.90476211    -2.1032432      1.3571414     -0.74610178     0.99296451     724570.91      79.385869      79.385869      114.97264    
  15000000   0.90308254    -2.1039573      1.354622      -0.74933526     1.0047182      724476.74      79.382429      79.382429      114.96766    
  15100000   0.90170053    -2.1003009      1.352549      -0.74775191     0.99521947     724777.78      79.393423      79.393423      114.98358    
  15200000   0.90305357    -2.1022384      1.3545786     -0.74765985     1.0143049      724365.07      79.37835       79.37835       114.96175    
  15300000   0.90359939    -2.1000788      1.3553973     -0.74468145     0.97181841     725047.26      79.403262      79.403262      114.99783    
  15400000   0.90393296    -2.1028706      1.3558976     -0.74697294     1.0106335      724552.02      79.385179      79.385179      114.97164    
  15500000   0.90187302    -2.104626       1.3528077     -0.75181824     1.0081212      724370.92      79.378564      79.378564      114.96206    
  15600000   0.90352035    -2.1005514      1.3552787     -0.74527265     0.98391704     724900         79.397885      79.397885      114.99004    
  15700000   0.90387085    -2.1034107      1.3558045     -0.74760621     1.0000513      724491.9       79.382983      79.382983      114.96846    
  15800000   0.90099532    -2.1004973      1.3514912     -0.7490061      1.0043923      724691.53      79.390273      79.390273      114.97902    
  15900000   0.90290585    -2.1020902      1.354357      -0.74773322     1.0167837      724379.2       79.378866      79.378866      114.9625     
  16000000   0.90149944    -2.1037983      1.3522474     -0.75155091     0.99797483     724432.89      79.380827      79.380827      114.96534    
  16100000   0.90301291    -2.0984152      1.3545176     -0.74389766     1.0051464      724686.09      79.390075      79.390075      114.97873    
  16200000   0.90274349    -2.1029701      1.3541134     -0.74885667     1.0099448      724459.4       79.381796      79.381796      114.96674    
  16300000   0.90150837    -2.100948       1.3522608     -0.74868726     1.0054682      724528.9       79.384334      79.384334      114.97042    
  16400000   0.90480358    -2.1034677      1.3572036     -0.74626414     0.98150359     724717.52      79.391223      79.391223      114.98039    
  16500000   0.90320058    -2.1022695      1.3547991     -0.74747045     0.99061791     724610.9       79.387329      79.387329      114.97475    
  16600000   0.90182966    -2.0991234      1.3527427     -0.74638067     0.99861444     724882.62      79.397251      79.397251      114.98912    
  16700000   0.90215109    -2.100361       1.3532249     -0.74713613     1.0012928      724701.1       79.390623      79.390623      114.97952    
  16800000   0.90280108    -2.0980589      1.3541998     -0.74385904     0.96912496     725145.99      79.406865      79.406865      115.00305    
  16900000   0.90330957    -2.1039707      1.3549626     -0.74900809     1.0062734      724369.03      79.378495      79.378495      114.96196    
  17000000   0.90280665    -2.1057741      1.3542082     -0.75156591     1.0037505      724392.25      79.379343      79.379343      114.96319    
  17100000   0.90427014    -2.1035509      1.3564034     -0.74714751     0.99094287     724572.02      79.385909      79.385909      114.9727     
  17200000   0.90368782    -2.1020793      1.3555299     -0.74654938     1.0030797      724558.75      79.385424      79.385424      114.97199    
  17300000   0.90404383    -2.1016201      1.356064      -0.74555613     1.0091959      724568.2       79.385769      79.385769      114.97249    
  17400000   0.90060229    -2.0989772      1.3509017     -0.74807559     0.99472598     724698.79      79.390539      79.390539      114.9794     
  17500000   0.90402596    -2.1031336      1.3560371     -0.74709646     0.99339648     724545.04      79.384924      79.384924      114.97127    
  17600000   0.90227602    -2.0983928      1.3534123     -0.74498054     0.99768781     724869.65      79.396777      79.396777      114.98844    
  17700000   0.90339668    -2.105207       1.3550932     -0.75011373     1.0042892      724252.29      79.37423       79.37423       114.95578    
  17800000   0.90177821    -2.0995312      1.3526655     -0.74686565     1.0106017      724789.02      79.393833      79.393833      114.98417    
  17900000   0.90466237    -2.1025958      1.3569918     -0.74560406     1.0033033      724577.08      79.386094      79.386094      114.97296    
  18000000   0.90301154    -2.1016333      1.3545155     -0.74711775     0.97105504     724848.5       79.396005      79.396005      114.98732    
  18100000   0.90358845    -2.0974359      1.3553809     -0.74205506     0.99426711     724876.2       79.397016      79.397016      114.98878    
  18200000   0.90249518    -2.1001115      1.353741      -0.74637053     0.99646665     724674.03      79.389634      79.389634      114.97809    
  18300000   0.90332347    -2.0974559      1.3549834     -0.74247245     1.009868       724745.03      79.392227      79.392227      114.98185    
  18400000   0.90171519    -2.1009718      1.352571      -0.74840084     0.99982177     724563.74      79.385607      79.385607      114.97226    
  18500000   0.90306561    -2.1024089      1.3545966     -0.7478123      0.98144087     724810.19      79.394606      79.394606      114.98529    
  18600000   0.90371706    -2.1027844      1.3555738     -0.74721057     0.99656476     724512.96      79.383752      79.383752      114.96957    
  18700000   0.90433304    -2.1013901      1.3564978     -0.74489228     0.9972648      724627.01      79.387917      79.387917      114.9756     
  18800000   0.90312069    -2.098007       1.3546793     -0.7433277      1.0120992      724659.89      79.389118      79.389118      114.97734    
  18900000   0.90235455    -2.0998918      1.35353       -0.74636171     0.99356968     724689.42      79.390196      79.390196      114.97891    
  19000000   0.90289974    -2.1022148      1.3543478     -0.747867       1.0153279      724435.76      79.380932      79.380932      114.96549    
  19100000   0.90269817    -2.100091       1.3540455     -0.74604548     0.98849453     724854.25      79.396215      79.396215      114.98762    
  19200000   0.90344854    -2.1011856      1.355171      -0.74601459     0.99761367     724669.28      79.389461      79.389461      114.97784    
  19300000   0.90373363    -2.0995174      1.3555987     -0.74391871     0.99897345     724713.04      79.391059      79.391059      114.98015    
  19400000   0.90265554    -2.1009787      1.3539815     -0.74699721     0.9952582      724762.24      79.392855      79.392855      114.98276    
  19500000   0.90469182    -2.1026872      1.3570359     -0.74565131     0.99291388     724581.23      79.386245      79.386245      114.97318    
  19600000   0.90410606    -2.103299       1.3561573     -0.74714172     1.0173987      724381.34      79.378945      79.378945      114.96261    
  19700000   0.90417698    -2.1045409      1.3562637     -0.74827726     1.0063722      724335.47      79.377269      79.377269      114.96018    
  19800000   0.90330733    -2.1023108      1.3549592     -0.74735161     1.0018211      724534.25      79.38453       79.38453       114.9707     
  19900000   0.90117628    -2.1001431      1.3517626     -0.7483805      1.0057576      724594.9       79.386745      79.386745      114.97391    
  20000000   0.90352538    -2.0994097      1.3552863     -0.74412345     0.99604657     724817.54      79.394875      79.394875      114.98568    
  20001000   0.90310922    -2.105125       1.354662      -0.75046294     1.0084233      724288.47      79.375552      79.375552      114.9577     
Loop time of 60263.2 on 720 procs for 20000000 steps with 758308 atoms

Performance: 143371.075 tau/day, 331.877 timesteps/s, 251.665 Matom-step/s
99.4% CPU use with 720 MPI tasks x 1 OpenMP threads

MPI task timing breakdown:
Section |  min time  |  avg time  |  max time  |%varavg| %total
---------------------------------------------------------------
Pair    | 7319       | 8153.5     | 9095.4     | 412.0 | 13.53
Bond    | 19.339     | 124.68     | 300.98     | 524.9 |  0.21
Neigh   | 23416      | 24613      | 25975      | 413.5 | 40.84
Comm    | 14109      | 17799      | 22025      |1514.3 | 29.54
Output  | 1.105      | 2.5518     | 4.1943     |  60.9 |  0.00
Modify  | 6044.1     | 8921.7     | 12265      |1557.9 | 14.80
Other   |            | 648.1      |            |       |  1.08

Nlocal:        1053.21 ave        1875 max         812 min
Histogram: 576 0 0 0 0 0 0 0 2 142
Nghost:        7492.06 ave       13533 max        5853 min
Histogram: 576 0 0 0 0 0 0 0 0 144
Neighs:        32551.7 ave       35129 max       29311 min
Histogram: 9 34 67 88 114 67 105 124 93 19

Total # of neighbors = 23437236
Ave neighs/atom = 30.907278
Ave special neighs/atom = 0.38890794
Neighbor list builds = 3449164
Dangerous builds = 0
System init for write_restart ...
Generated 0 of 10 mixed pair_coeff terms from geometric mixing rule
Last active /omp style is bond_style fene/omp
System init for write_data ...
Generated 0 of 10 mixed pair_coeff terms from geometric mixing rule
Last active /omp style is bond_style fene/omp
WARNING: Not all mixed pair coeffs generated from mixing. Use write_data with 'pair ij' option to store all pair coeffs. (src/write_data.cpp:364)
Total wall time: 16:44:58
======================================
Running post-processing...
======================================
Generating convergence plot...
Plot saved to ./output_plots/convergence_plots/slab_support_5beads_tall_3_1.5_1.4_20000000_convergence.png
Generating stress profiles...
No stress data found for slab_support_5beads_tall_3_1.5_1.4_20000000, skipping stress plots
No volume data found for slab_support_5beads_tall_3_1.5_1.4_20000000, skipping volume fraction plots
Generating piston plots...
Error: Piston position file not found: ./output_files/piston_data/piston_position_slab_support_5beads_tall_3_1.5_1.4_20000000.dat
Generating computational efficiency plot...
Found data file: ./data_files/slab_support_5beads_tall_3.data
Mobile atoms: 618410
Tracking info written to /jet/home/dpollard/Documents/lammps_work/tracking.txt
Saved /jet/home/dpollard/Documents/lammps_work/time_vs_atoms.png
Saved /jet/home/dpollard/Documents/lammps_work/time_vs_timesteps.png
======================================
Done! Results are in: /jet/home/dpollard/Documents/lammps_runs/slab_with_support_slab_support_5beads_tall_3_1.5_1.4_20260117_210939
======================================
