======================================
Working directory: /jet/home/dpollard/Documents/lammps_runs/slab_with_support_slab_support_5beads_10x10x5_rho6_extra_padding43_1.5_1.4_20260104_141337
Trajectory directory (scratch): /ocean/projects/chm250028p/dpollard/lammps_trajectories/slab_with_support_slab_support_5beads_10x10x5_rho6_extra_padding43_1.5_1.4_20260104_141337
======================================
Running LAMMPS in slab_with_support with:
  dataname=slab_support_5beads_10x10x5_rho6_extra_padding43
  epsSS=1.5, epsSP=1.4
  nsteps=10000000, oldsteps=0, totsteps=10000000
SLURM tasks per node: 120
SLURM CPUs per task: 1
SLURM_GPUS_ON_NODE: 
GPUs allocated: 
Running CPU-only with 480 tasks
LAMMPS (22 Jul 2025)
OMP_NUM_THREADS environment is not set. Defaulting to 1 thread.
  using 1 OpenMP thread(s) per MPI task
using multi-threaded neighbor list subroutines
Reading data file ...
  orthogonal box = (0 0 0) to (87 87 55.5)
  10 by 8 by 6 MPI processor grid
  reading atoms ...
  766478 atoms
  scanning bonds ...
  3 = max bonds/atom
  orthogonal box = (0 0 0) to (87 87 55.5)
  10 by 8 by 6 MPI processor grid
  reading bonds ...
  144000 bonds
Finding 1-2 1-3 1-4 neighbors ...
  special bond factors lj:    0        0        0       
  special bond factors coul:  0        0        0       
     4 = max # of 1-2 neighbors
     4 = max # of 1-3 neighbors
     8 = max # of 1-4 neighbors
    12 = max # of special neighbors
  special bonds CPU = 0.125 seconds
  read_data CPU = 2.382 seconds
>>> is_restart = 0
>>> Previous    # of timesteps: 0
>>> Current     # of timesteps: 10000000
>>> Cumulative  # of timesteps: 10000000
127091 atoms in group polymer
420079 atoms in group solvent
109654 atoms in group support
109654 atoms in group piston
547170 atoms in group mobile
346399 atoms in group polymer_and_support
Finding 1-2 1-3 1-4 neighbors ...
  special bond factors lj:    0        1        1       
  special bond factors coul:  0        1        1       
     4 = max # of 1-2 neighbors
    12 = max # of special neighbors
  special bonds CPU = 0.018 seconds
Generated 0 of 10 mixed pair_coeff terms from geometric mixing rule
Last active /omp style is bond_style fene/omp
Neighbor list info ...
  update: every = 1 steps, delay = 0 steps, check = yes
  max neighbors/atom: 2000, page size: 100000
  master list distance cutoff = 2.8
  ghost atom cutoff = 5
  binsize = 1.4, bins = 63 63 40
  1 neighbor lists, perpetual/occasional/extra = 1 0 0
  (1) pair lj/cut/omp, perpetual
      attributes: half, newton on, omp
      pair build: half/bin/newton/omp
      stencil: half/bin/3d
      bin: standard
Setting up cg style minimization ...
  Unit style    : lj
  Current step  : 0
Per MPI rank memory allocation (min/avg/max) = 11.39 | 14.46 | 20.33 Mbytes
   Step          Temp          E_pair         E_mol          TotEng         Press     
         0   0              5.4656452e+18  17181.681      5.4656452e+18  3.9890514e+19
      3212   0             -4.6346672      4.2486332     -0.38603401     55.866842    
Loop time of 26.5317 on 480 procs for 3212 steps with 766478 atoms

99.3% CPU use with 480 MPI tasks x 1 OpenMP threads

Minimization stats:
  Stopping criterion = energy tolerance
  Energy initial, next-to-last, final = 
    5.46564523121817e+18 -0.386002224067636 -0.386034006139631
  Force two-norm initial, final = 5.1165644e+27 310.51341
  Force max component initial, final = 2.7623355e+27 52.901578
  Final line search alpha, max atom move = 0.0014283476 0.075561842
  Iterations, force evaluations = 3212 3861

MPI task timing breakdown:
Section |  min time  |  avg time  |  max time  |%varavg| %total
---------------------------------------------------------------
Pair    | 3.9115     | 5.7422     | 11.245     |  52.4 | 21.64
Bond    | 0.0029903  | 0.052288   | 0.12513    |  20.9 |  0.20
Neigh   | 9.3014     | 9.6217     | 10.018     |   5.5 | 36.26
Comm    | 3.1379     | 6.2224     | 10.266     |  44.9 | 23.45
Output  | 0          | 0          | 0          |   0.0 |  0.00
Modify  | 0.039525   | 0.079651   | 0.15326    |   8.9 |  0.30
Other   |            | 4.814      |            |       | 18.14

Nlocal:        1596.83 ave        2570 max        1103 min
Histogram: 320 0 0 0 0 0 0 0 0 160
Nghost:          11967 ave       18741 max        8429 min
Histogram: 320 0 0 0 0 0 0 0 0 160
Neighs:        69332.6 ave       73800 max       64755 min
Histogram: 12 42 51 79 63 54 56 50 59 14

Total # of neighbors = 33279642
Ave neighs/atom = 43.418914
Ave special neighs/atom = 0.37574464
Neighbor list builds = 742
Dangerous builds = 19
Generated 0 of 10 mixed pair_coeff terms from geometric mixing rule
Last active /omp style is bond_style fene/omp
Setting up Verlet run ...
  Unit style    : lj
  Current step  : 0
  Time step     : 0.001
Per MPI rank memory allocation (min/avg/max) = 10.3 | 13 | 18.09 Mbytes
   Step          Temp          PotEng         KinEng         TotEng         Press          Volume           Lx             Ly             Lz      
         0   0.07138753    -0.38603401     0.10708116    -0.27895285     55.997096      420079.5       87             87             55.5         
      1000   0.46953946     0.29548159     0.70430828     0.99978987     62.386528      420079.5       87             87             55.5         
Loop time of 2.58709 on 480 procs for 1000 steps with 766478 atoms

Performance: 33396.566 tau/day, 386.534 timesteps/s, 296.270 Matom-step/s
99.4% CPU use with 480 MPI tasks x 1 OpenMP threads

MPI task timing breakdown:
Section |  min time  |  avg time  |  max time  |%varavg| %total
---------------------------------------------------------------
Pair    | 0.78947    | 0.8565     | 0.92351    |   3.2 | 33.11
Bond    | 0.00058809 | 0.0045558  | 0.0093703  |   5.2 |  0.18
Neigh   | 0.2384     | 0.24568    | 0.25489    |   0.9 |  9.50
Comm    | 0.69061    | 1.0658     | 1.3289     |  16.0 | 41.20
Output  | 7.7355e-05 | 0.00050287 | 0.0010484  |   0.0 |  0.02
Modify  | 0.076759   | 0.088447   | 0.10769    |   2.6 |  3.42
Other   |            | 0.3256     |            |       | 12.58

Nlocal:        1596.83 ave        2567 max        1098 min
Histogram: 320 0 0 0 0 0 0 0 0 160
Nghost:        11967.4 ave       18743 max        8452 min
Histogram: 320 0 0 0 0 0 0 0 0 160
Neighs:        69278.4 ave       73810 max       64924 min
Histogram: 14 44 53 90 57 48 58 65 43 8

Total # of neighbors = 33253609
Ave neighs/atom = 43.384949
Ave special neighs/atom = 0.37574464
Neighbor list builds = 19
Dangerous builds = 0
Generated 0 of 10 mixed pair_coeff terms from geometric mixing rule
Last active /omp style is bond_style fene/omp
Setting up Verlet run ...
  Unit style    : lj
  Current step  : 0
  Time step     : 0.005
Per MPI rank memory allocation (min/avg/max) = 10.3 | 13 | 18.09 Mbytes
   Step          Temp          PotEng         KinEng         TotEng         Press          Volume           Lx             Ly             Lz      
         0   0.46953946     0.29548159     0.70430828     0.99978987     62.386528      420079.5       87             87             55.5         
      1000   0.69479961    -1.8153118      1.0421981     -0.77311375     1.4415786      602987.48      98.139729      98.139729      62.606379    
Loop time of 4.80425 on 480 procs for 1000 steps with 766478 atoms

Performance: 89920.389 tau/day, 208.149 timesteps/s, 159.542 Matom-step/s
99.2% CPU use with 480 MPI tasks x 1 OpenMP threads

MPI task timing breakdown:
Section |  min time  |  avg time  |  max time  |%varavg| %total
---------------------------------------------------------------
Pair    | 0.60037    | 0.66476    | 0.75013    |   4.0 | 13.84
Bond    | 0.0010055  | 0.0086761  | 0.021896   |   7.3 |  0.18
Neigh   | 2.3702     | 2.438      | 2.525      |   2.6 | 50.75
Comm    | 0.85075    | 1.1898     | 1.444      |  14.7 | 24.76
Output  | 0.00010098 | 0.00011615 | 0.00031949 |   0.0 |  0.00
Modify  | 0.27097    | 0.46949    | 0.74108    |  18.9 |  9.77
Other   |            | 0.03348    |            |       |  0.70

Nlocal:        1596.83 ave        2574 max        1097 min
Histogram: 320 0 0 0 0 0 0 0 0 160
Nghost:        9940.14 ave       15790 max        6875 min
Histogram: 320 0 0 0 0 0 0 0 0 160
Neighs:        45792.2 ave       49629 max       42763 min
Histogram: 30 96 84 27 10 32 92 90 18 1

Total # of neighbors = 21980267
Ave neighs/atom = 28.676971
Ave special neighs/atom = 0.37574464
Neighbor list builds = 222
Dangerous builds = 0
Generated 0 of 10 mixed pair_coeff terms from geometric mixing rule
Last active /omp style is bond_style fene/omp
Setting up Verlet run ...
  Unit style    : lj
  Current step  : 1000
  Time step     : 0.005
Per MPI rank memory allocation (min/avg/max) = 10.31 | 13 | 18.1 Mbytes
   Step          Temp          PotEng         KinEng         TotEng         Press          Volume           Lx             Ly             Lz      
      1000   0.69479961    -1.8153118      1.0421981     -0.77311375     1.4415786      602987.48      98.139729      98.139729      62.606379    
    100000   0.79717165    -1.3700014      1.1957559     -0.17424546     1.0067898      641504.68      100.18638      100.18638      63.912003    
    200000   0.81446102    -1.3173992      1.2216899     -0.095709281    0.98135692     646216.66      100.43108      100.43108      64.068104    
    300000   0.82530853    -1.2875035      1.2379612     -0.049542348    0.98581279     648604.85      100.55465      100.55465      64.146931    
    400000   0.83213053    -1.2706119      1.2481942     -0.022417756    1.0101191      650005.78      100.62699      100.62699      64.193082    
    500000   0.83426886    -1.2660401      1.2514017     -0.014638495    0.99954162     650586.78      100.65697      100.65697      64.212202    
    600000   0.83650276    -1.2553459      1.2547525     -0.00059335957  0.99377995     651476.11      100.70281      100.70281      64.241448    
    700000   0.84120329    -1.251957       1.2618033      0.0098462915   1.0106714      651802.27      100.71961      100.71961      64.252167    
    800000   0.84234341    -1.2461097      1.2635135      0.017403735    1.0038444      652472.11      100.7541       100.7541       64.274169    
    900000   0.84317783    -1.2440569      1.2647651      0.020708179    0.99015718     652724.98      100.76712      100.76712      64.282471    
   1000000   0.8433895     -1.2435577      1.2650826      0.021524858    1.0082715      652636.35      100.76256      100.76256      64.279562    
   1100000   0.84388441    -1.2431041      1.265825       0.022720829    0.9978384      652751.17      100.76846      100.76846      64.283331    
   1200000   0.84390824    -1.2432123      1.2658607      0.0226484      1.0174531      652595.81      100.76047      100.76047      64.278231    
   1300000   0.84194193    -1.2402669      1.2629112      0.022644311    1.0120936      652857.4       100.77393      100.77393      64.286818    
   1400000   0.84421409    -1.2418491      1.2663195      0.024470378    0.98996012     652983.12      100.7804       100.7804       64.290944    
   1500000   0.84446138    -1.2437181      1.2666904      0.022972277    0.98005049     653073.88      100.78507      100.78507      64.293923    
   1600000   0.84377202    -1.2406034      1.2656564      0.025052972    1.0004884      653047.63      100.78372      100.78372      64.293061    
   1700000   0.84499622    -1.2433353      1.2674927      0.024157398    0.9837918      652884.72      100.77534      100.77534      64.287715    
   1800000   0.8441715     -1.241628       1.2662556      0.024627609    0.99485012     653119.55      100.78742      100.78742      64.295421    
   1900000   0.845935      -1.242032       1.2689008      0.026868879    1.0199566      652820.75      100.77205      100.77205      64.285615    
   2000000   0.84519195    -1.2442602      1.2677863      0.023526114    1.0046602      652798.62      100.77091      100.77091      64.284889    
   2100000   0.84588292    -1.2462623      1.2688227      0.022560425    0.99950334     652832.3       100.77264      100.77264      64.285994    
   2200000   0.84499807    -1.2428741      1.2674955      0.024621323    1.0219175      652844.93      100.77329      100.77329      64.286409    
   2300000   0.84407538    -1.2413818      1.2661114      0.024729594    1.0071446      653104.6       100.78665      100.78665      64.294931    
   2400000   0.84379176    -1.2452705      1.265686       0.020415473    0.97706614     652942.78      100.77832      100.77832      64.28962     
   2500000   0.84554945    -1.2447668      1.2683225      0.023555743    0.99803317     652872.46      100.77471      100.77471      64.287312    
   2600000   0.84537295    -1.2483405      1.2680578      0.019717254    1.013366       652517.19      100.75642      100.75642      64.275649    
   2700000   0.84594498    -1.2463767      1.2689158      0.022539136    1.014207       652641.06      100.7628       100.7628       64.279716    
   2800000   0.84683085    -1.2466317      1.2702446      0.023612903    1.0028667      652695.72      100.76561      100.76561      64.281511    
   2900000   0.8450613     -1.2461484      1.2675903      0.021441907    1.0133842      652505.79      100.75584      100.75584      64.275275    
   3000000   0.84556461    -1.2476471      1.2683453      0.020698173    0.98319194     652763         100.76907      100.76907      64.283719    
   3100000   0.84434966    -1.2461312      1.2665228      0.020391659    0.98743242     652831.78      100.77261      100.77261      64.285977    
   3200000   0.84504998    -1.2459044      1.2675733      0.021668948    0.99074083     652840.31      100.77305      100.77305      64.286257    
   3300000   0.84352223    -1.246574       1.2652817      0.018707734    1.0040504      652684.96      100.76506      100.76506      64.281158    
   3400000   0.84529214    -1.244419       1.2679366      0.023517575    0.98835282     653030.97      100.78286      100.78286      64.292515    
   3500000   0.84535138    -1.2488435      1.2680254      0.019181882    0.99389333     652569.82      100.75913      100.75913      64.277377    
   3600000   0.84546935    -1.2479353      1.2682024      0.020267044    1.0009792      652592.57      100.7603       100.7603       64.278124    
   3700000   0.84453275    -1.2479885      1.2667975      0.018808955    0.99921699     652643.35      100.76292      100.76292      64.279792    
   3800000   0.84683747    -1.2489248      1.2702546      0.021329748    0.9962003      652657.74      100.76366      100.76366      64.280264    
   3900000   0.84606488    -1.2479715      1.2690957      0.021124123    1.0052182      652681.05      100.76486      100.76486      64.281029    
   4000000   0.84533252    -1.2498875      1.2679971      0.018109663    1.0115871      652332.67      100.74692      100.74692      64.26959     
   4100000   0.84433973    -1.2447824      1.2665079      0.021725553    0.99648154     652878.64      100.77502      100.77502      64.287515    
   4200000   0.84527955    -1.2507897      1.2679177      0.017127957    0.99982351     652465.62      100.75377      100.75377      64.273956    
   4300000   0.8454972     -1.2481553      1.2682441      0.020088814    0.97367556     652943.48      100.77836      100.77836      64.289643    
   4400000   0.84558573    -1.2485937      1.2683769      0.019783253    1.0266048      652392.39      100.75         100.75         64.271551    
   4500000   0.8447603     -1.2471383      1.2671388      0.020000523    1.0075394      652590.24      100.76018      100.76018      64.278048    
   4600000   0.843866      -1.2468201      1.2657974      0.018977253    1.0181542      652611.64      100.76128      100.76128      64.27875     
   4700000   0.84354484    -1.2464148      1.2653156      0.018900852    1.0125282      652528.92      100.75703      100.75703      64.276034    
   4800000   0.84479195    -1.2489084      1.2671863      0.018277884    0.99954554     652629.53      100.76221      100.76221      64.279338    
   4900000   0.84466322    -1.2490235      1.2669932      0.01796967     1.0301097      652394.08      100.75009      100.75009      64.271607    
   5000000   0.84460584    -1.247649       1.2669071      0.019258093    0.98704952     652818.37      100.77192      100.77192      64.285537    
   5100000   0.84418121    -1.2481637      1.2662702      0.018106428    0.98761051     652826.33      100.77233      100.77233      64.285798    
   5200000   0.8457584     -1.2467323      1.2686359      0.021903619    0.98445645     652960.46      100.77923      100.77923      64.290201    
   5300000   0.84444173    -1.2506856      1.2666609      0.01597535     0.98198547     652612.7       100.76134      100.76134      64.278785    
   5400000   0.84438871    -1.2458285      1.2665814      0.020752879    0.97470834     652937.63      100.77806      100.77806      64.289451    
   5500000   0.84561744    -1.2487926      1.2684245      0.019631942    1.0054821      652422.15      100.75153      100.75153      64.272528    
   5600000   0.84440009    -1.2438817      1.2665985      0.022716758    1.006941       652777.03      100.7698       100.7698       64.28418     
   5700000   0.84440691    -1.24751        1.2666087      0.019098673    1.0005908      652719.86      100.76685      100.76685      64.282303    
   5800000   0.84357434    -1.2472172      1.2653599      0.018142646    0.99455686     652778.7       100.76988      100.76988      64.284235    
   5900000   0.84505724    -1.2476947      1.2675842      0.019889469    0.99278015     652788.83      100.7704       100.7704       64.284567    
   6000000   0.84361757    -1.2491309      1.2654247      0.016293764    0.99214908     652592.91      100.76032      100.76032      64.278135    
   6100000   0.84491139    -1.2503514      1.2673654      0.017014044    0.99196881     652484.1       100.75472      100.75472      64.274563    
   6200000   0.84530692    -1.2489221      1.2679587      0.019036649    0.98471369     652750.37      100.76842      100.76842      64.283305    
   6300000   0.84427433    -1.252097       1.2664098      0.014312812    1.0081561      652066.76      100.73323      100.73323      64.260856    
   6400000   0.84300039    -1.2486012      1.2644989      0.015897764    0.99963645     652666.99      100.76413      100.76413      64.280568    
   6500000   0.84529259    -1.2489801      1.2679372      0.018957161    0.98115956     652895.41      100.77589      100.77589      64.288066    
   6600000   0.84426333    -1.2483695      1.2663933      0.018023843    1.0037109      652471.26      100.75406      100.75406      64.274141    
   6700000   0.84436908    -1.2474778      1.266552       0.019074133    1.0156959      652482.22      100.75462      100.75462      64.274501    
   6800000   0.84453986    -1.2491358      1.2668081      0.017672324    1.0132035      652326.55      100.74661      100.74661      64.269389    
   6900000   0.84491355    -1.2501783      1.2673687      0.017190413    1.0255446      652277.96      100.74411      100.74411      64.267793    
   7000000   0.84579993    -1.2480276      1.2686982      0.02067061     0.98317544     652806.83      100.77133      100.77133      64.285158    
   7100000   0.84495884    -1.2433393      1.2674366      0.024097319    0.99215907     652954.77      100.77894      100.77894      64.290014    
   7200000   0.8457012     -1.2468163      1.2685501      0.021733879    0.98220909     652881.07      100.77515      100.77515      64.287595    
   7300000   0.84695266    -1.2508866      1.2704273      0.019540747    1.0163791      652327.76      100.74667      100.74667      64.269429    
   7400000   0.84407308    -1.2497053      1.266108       0.016402638    0.99737056     652544.46      100.75783      100.75783      64.276545    
   7500000   0.8440915     -1.2491307      1.2661356      0.017004925    0.98216436     652680.24      100.76481      100.76481      64.281002    
   7600000   0.84520658    -1.2478712      1.2678082      0.019937007    1.0117724      652499         100.75549      100.75549      64.275052    
   7700000   0.84377453    -1.2483814      1.2656601      0.017278717    0.99841146     652567.78      100.75903      100.75903      64.27731     
   7800000   0.84670945    -1.2452614      1.2700625      0.024801157    1.0079861      652754.75      100.76865      100.76865      64.283449    
   7900000   0.84521141    -1.2499242      1.2678155      0.017891212    0.99908849     652485.66      100.7548       100.7548       64.274614    
   8000000   0.84529522    -1.2479541      1.2679412      0.019987106    1.0014225      652706.43      100.76616      100.76616      64.281862    
   8100000   0.84620612    -1.2476068      1.2693075      0.021700682    0.99632107     652655.22      100.76353      100.76353      64.280181    
   8200000   0.84578889    -1.2501658      1.2686817      0.018515881    1.0032687      652463.41      100.75366      100.75366      64.273884    
   8300000   0.8446235     -1.2474594      1.2669336      0.019474157    0.99573254     652630.05      100.76223      100.76223      64.279355    
   8400000   0.84504559    -1.2447915      1.2675667      0.022775258    1.0128046      652845.67      100.77333      100.77333      64.286433    
   8500000   0.84551681    -1.2469848      1.2682736      0.021288793    1.0033231      652705.22      100.7661       100.7661       64.281823    
   8600000   0.84520219    -1.2465202      1.2678016      0.021281423    0.99887587     652774.27      100.76965      100.76965      64.284089    
   8700000   0.84545482    -1.2460547      1.2681806      0.022125902    1.0035982      652733.13      100.76754      100.76754      64.282739    
   8800000   0.84566228    -1.2473406      1.2684918      0.021151125    1.008784       652504.32      100.75576      100.75576      64.275227    
   8900000   0.84525252    -1.2487226      1.2678771      0.019154567    1.0038641      652503.96      100.75574      100.75574      64.275215    
   9000000   0.84562896    -1.24917        1.2684418      0.019271804    0.99771235     652563.92      100.75883      100.75883      64.277184    
   9100000   0.84432502    -1.2476189      1.2664859      0.01886701     1.0255369      652372.99      100.749        100.749        64.270914    
   9200000   0.84566776    -1.2486929      1.2685         0.019807089    0.99231678     652692.17      100.76543      100.76543      64.281394    
   9300000   0.84405088    -1.2486817      1.2660747      0.017393       1.0015976      652605.69      100.76098      100.76098      64.278555    
   9400000   0.84440238    -1.2471708      1.2666019      0.019431086    1.0005733      652697.31      100.76569      100.76569      64.281563    
   9500000   0.84512777    -1.2505687      1.26769        0.017121344    0.9884015      652308.56      100.74568      100.74568      64.268798    
   9600000   0.84555076    -1.2495865      1.2683245      0.018737977    1.0030291      652475.46      100.75428      100.75428      64.274279    
   9700000   0.84471247    -1.2514978      1.2670671      0.015569227    1.0031698      652180.96      100.73911      100.73911      64.264607    
   9800000   0.84600215    -1.2482624      1.2690016      0.020739194    0.99123097     652711.2       100.76641      100.76641      64.282019    
   9900000   0.84471061    -1.249521       1.2670643      0.017543281    1.0031108      652603.61      100.76087      100.76087      64.278487    
  10000000   0.84513457    -1.2468388      1.2677002      0.020861405    0.99223303     652687.59      100.76519      100.76519      64.281244    
  10001000   0.84597569    -1.2513347      1.2689619      0.017627139    1.0113176      652213.97      100.74081      100.74081      64.265692    
Loop time of 38878.1 on 480 procs for 10000000 steps with 766478 atoms

Performance: 111116.486 tau/day, 257.214 timesteps/s, 197.149 Matom-step/s
99.3% CPU use with 480 MPI tasks x 1 OpenMP threads

MPI task timing breakdown:
Section |  min time  |  avg time  |  max time  |%varavg| %total
---------------------------------------------------------------
Pair    | 4638.2     | 5336.3     | 5801.6     | 382.0 | 13.73
Bond    | 17.751     | 86.314     | 134.23     | 378.1 |  0.22
Neigh   | 17323      | 17820      | 18494      | 224.6 | 45.83
Comm    | 7409.3     | 10650      | 12870      |1390.3 | 27.39
Output  | 0.61446    | 2.4288     | 4.4823     |  79.4 |  0.01
Modify  | 2897.8     | 4659.8     | 7411.1     |1798.7 | 11.99
Other   |            | 323.2      |            |       |  0.83

Nlocal:        1596.83 ave        2569 max        1079 min
Histogram: 320 0 0 0 0 0 0 0 0 160
Nghost:        9559.07 ave       15269 max        6498 min
Histogram: 320 0 0 0 0 0 0 0 0 160
Neighs:        42499.7 ave       46017 max       38083 min
Histogram: 4 18 49 61 63 67 62 89 55 12

Total # of neighbors = 20399866
Ave neighs/atom = 26.61507
Ave special neighs/atom = 0.37574464
Neighbor list builds = 1790827
Dangerous builds = 0
System init for write_restart ...
Generated 0 of 10 mixed pair_coeff terms from geometric mixing rule
Last active /omp style is bond_style fene/omp
System init for write_data ...
Generated 0 of 10 mixed pair_coeff terms from geometric mixing rule
Last active /omp style is bond_style fene/omp
WARNING: Not all mixed pair coeffs generated from mixing. Use write_data with 'pair ij' option to store all pair coeffs. (src/write_data.cpp:364)
Total wall time: 10:48:36
======================================
Running post-processing...
======================================
Generating convergence plot...
Plot saved to ./output_plots/convergence_plots/slab_support_5beads_10x10x5_rho6_extra_padding43_1.5_1.4_10000000_convergence.png
Generating stress profiles...
No stress data found for slab_support_5beads_10x10x5_rho6_extra_padding43_1.5_1.4_10000000, skipping stress plots
No volume data found for slab_support_5beads_10x10x5_rho6_extra_padding43_1.5_1.4_10000000, skipping volume fraction plots
Generating computational efficiency plot...
Mobile atoms: 547168
Tracking info written to /jet/home/dpollard/Documents/lammps_work/tracking.txt
Saved /jet/home/dpollard/Documents/lammps_work/time_vs_atoms.png
Saved /jet/home/dpollard/Documents/lammps_work/time_vs_timesteps.png
======================================
Done! Results are in: /jet/home/dpollard/Documents/lammps_runs/slab_with_support_slab_support_5beads_10x10x5_rho6_extra_padding43_1.5_1.4_20260104_141337
======================================
