======================================
Working directory: /jet/home/dpollard/Documents/lammps_runs/slab_with_support_slab_support_tall_angle_2_1.5_1.4_20260205_174936
Trajectory directory (scratch): /ocean/projects/chm250028p/dpollard/lammps_trajectories/slab_with_support_slab_support_tall_angle_2_1.5_1.4_20260205_174936
======================================
Running LAMMPS in slab_with_support with:
  dataname=slab_support_tall_angle_2
  epsSS=1.5, epsSP=1.4
  nsteps=700000, oldsteps=0, totsteps=700000
SLURM tasks per node: 120
SLURM CPUs per task: 1
SLURM_GPUS_ON_NODE: 
GPUs allocated: 
Running CPU-only with 600 tasks
LAMMPS (22 Jul 2025)
OMP_NUM_THREADS environment is not set. Defaulting to 1 thread.
  using 1 OpenMP thread(s) per MPI task
using multi-threaded neighbor list subroutines
Reading data file ...
  orthogonal box = (0 0 0) to (76 76 95)
  6 by 10 by 10 MPI processor grid
  reading atoms ...
  812478 atoms
  scanning bonds ...
  3 = max bonds/atom
  scanning angles ...
  6 = max angles/atom
  orthogonal box = (0 0 0) to (76 76 95)
  6 by 10 by 10 MPI processor grid
  reading bonds ...
  108800 bonds
  reading angles ...
  159754 angles
Finding 1-2 1-3 1-4 neighbors ...
  special bond factors lj:    0        0        0       
  special bond factors coul:  0        0        0       
     4 = max # of 1-2 neighbors
     4 = max # of 1-3 neighbors
     8 = max # of 1-4 neighbors
    12 = max # of special neighbors
  special bonds CPU = 0.143 seconds
  read_data CPU = 7.723 seconds
>>> is_restart = 0
>>> Previous    # of timesteps: 0
>>> Current     # of timesteps: 700000
>>> Cumulative  # of timesteps: 700000
96118 atoms in group polymer
548720 atoms in group solvent
83820 atoms in group support
83820 atoms in group piston
644838 atoms in group mobile
263758 atoms in group polymer_and_support
Finding 1-2 1-3 1-4 neighbors ...
  special bond factors lj:    0        1        1       
  special bond factors coul:  0        1        1       
     4 = max # of 1-2 neighbors
    12 = max # of special neighbors
  special bonds CPU = 0.047 seconds
Generated 0 of 10 mixed pair_coeff terms from geometric mixing rule
Last active /omp style is angle_style harmonic
Neighbor list info ...
  update: every = 1 steps, delay = 0 steps, check = yes
  max neighbors/atom: 2000, page size: 100000
  master list distance cutoff = 2.8
  ghost atom cutoff = 5
  binsize = 1.4, bins = 55 55 68
  1 neighbor lists, perpetual/occasional/extra = 1 0 0
  (1) pair lj/cut/omp, perpetual
      attributes: half, newton on, omp
      pair build: half/bin/newton/omp
      stencil: half/bin/3d
      bin: standard
Setting up cg style minimization ...
  Unit style    : lj
  Current step  : 0
Per MPI rank memory allocation (min/avg/max) = 13.08 | 15.31 | 23.75 Mbytes
   Step          Temp          E_pair         E_mol          TotEng         Press     
         0   0              1.8489186e+19  12247.765      1.8489186e+19  1.0950617e+20
      2429   0             -7.3034846      9.8940192      2.5905346      25.100041    
Loop time of 18.5581 on 600 procs for 2429 steps with 812478 atoms

99.4% CPU use with 600 MPI tasks x 1 OpenMP threads

Minimization stats:
  Stopping criterion = energy tolerance
  Energy initial, next-to-last, final = 
    1.84891858778548e+19    2.5907850664949   2.59053464380526
  Force two-norm initial, final = 2.5440747e+28 1142.0898
  Force max component initial, final = 1.3147827e+28 260.23975
  Final line search alpha, max atom move = 0.0004510524 0.11738177
  Iterations, force evaluations = 2429 2612

MPI task timing breakdown:
Section |  min time  |  avg time  |  max time  |%varavg| %total
---------------------------------------------------------------
Pair    | 2.1402     | 3.3326     | 6.9374     |  57.9 | 17.96
Bond    | 0.0060648  | 0.065482   | 0.28993    |  34.4 |  0.35
Neigh   | 7.6763     | 8.0904     | 8.4308     |   6.1 | 43.60
Comm    | 1.9763     | 4.0919     | 7.2779     |  43.1 | 22.05
Output  | 0          | 0          | 0          |   0.0 |  0.00
Modify  | 0.026275   | 0.047549   | 0.10724    |   7.6 |  0.26
Other   |            | 2.93       |            |       | 15.79

Nlocal:        1354.13 ave        2577 max         934 min
Histogram: 291 189 0 0 0 0 0 0 50 70
Nghost:        10108.7 ave       18744 max        7150 min
Histogram: 312 168 0 0 0 0 0 0 6 114
Neighs:        58580.2 ave       73309 max       43599 min
Histogram: 22 34 73 87 92 97 52 48 63 32

Total # of neighbors = 35148137
Ave neighs/atom = 43.260417
Ave special neighs/atom = 0.26782264
Neighbor list builds = 638
Dangerous builds = 32
Generated 0 of 10 mixed pair_coeff terms from geometric mixing rule
Last active /omp style is angle_style harmonic
Setting up Verlet run ...
  Unit style    : lj
  Current step  : 0
  Time step     : 0.001
Per MPI rank memory allocation (min/avg/max) = 11.96 | 13.99 | 21.5 Mbytes
   Step          Temp          PotEng         KinEng         TotEng         Press          Volume           Lx             Ly             Lz      
         0   0.079366801    2.5905346      0.11905005     2.7095847      25.217557      548720         76             76             95           
      1000   0.58096851     3.1622109      0.87145169     4.0336626      30.346688      548720         76             76             95           
Loop time of 2.30103 on 600 procs for 1000 steps with 812478 atoms

Performance: 37548.329 tau/day, 434.587 timesteps/s, 353.092 Matom-step/s
99.4% CPU use with 600 MPI tasks x 1 OpenMP threads

MPI task timing breakdown:
Section |  min time  |  avg time  |  max time  |%varavg| %total
---------------------------------------------------------------
Pair    | 0.53788    | 0.72829    | 0.89023    |   9.0 | 31.65
Bond    | 0.0016619  | 0.015375   | 0.054092   |  15.4 |  0.67
Neigh   | 0.28087    | 0.29451    | 0.30523    |   1.1 | 12.80
Comm    | 0.68554    | 0.87396    | 1.1492     |  12.7 | 37.98
Output  | 0.00011075 | 0.00065922 | 0.0011331  |   0.0 |  0.03
Modify  | 0.068745   | 0.083334   | 0.10872    |   2.4 |  3.62
Other   |            | 0.3049     |            |       | 13.25

Nlocal:        1354.13 ave        2544 max         961 min
Histogram: 362 118 0 0 0 0 0 0 6 114
Nghost:        10107.1 ave       18570 max        7358 min
Histogram: 410 70 0 0 0 0 0 0 0 120
Neighs:        58419.2 ave       68452 max       46745 min
Histogram: 13 24 51 104 91 87 68 57 64 41

Total # of neighbors = 35051548
Ave neighs/atom = 43.141535
Ave special neighs/atom = 0.26782264
Neighbor list builds = 24
Dangerous builds = 0
Generated 0 of 10 mixed pair_coeff terms from geometric mixing rule
Last active /omp style is angle_style harmonic
Setting up Verlet run ...
  Unit style    : lj
  Current step  : 0
  Time step     : 0.005
Per MPI rank memory allocation (min/avg/max) = 11.97 | 13.99 | 21.5 Mbytes
   Step          Temp          PotEng         KinEng         TotEng         Press          Volume           Lx             Ly             Lz      
         0   0.58096851     3.1622109      0.87145169     4.0336626      30.346688      548720         76             76             95           
      1000   0.79816261     2.3409418      1.1972424      3.5381843      1.1850974      738726.68      83.918541      83.918541      104.89818    
Loop time of 4.55112 on 600 procs for 1000 steps with 812478 atoms

Performance: 94921.598 tau/day, 219.726 timesteps/s, 178.522 Matom-step/s
99.3% CPU use with 600 MPI tasks x 1 OpenMP threads

MPI task timing breakdown:
Section |  min time  |  avg time  |  max time  |%varavg| %total
---------------------------------------------------------------
Pair    | 0.51735    | 0.58068    | 0.6866     |   3.6 | 12.76
Bond    | 0.0026156  | 0.023808   | 0.080266   |  18.1 |  0.52
Neigh   | 2.3177     | 2.4204     | 2.5091     |   3.3 | 53.18
Comm    | 0.75803    | 0.99776    | 1.2683     |  13.6 | 21.92
Output  | 0.00010782 | 0.0001225  | 0.00016793 |   0.0 |  0.00
Modify  | 0.31031    | 0.48945    | 0.65467    |  12.8 | 10.75
Other   |            | 0.03891    |            |       |  0.85

Nlocal:        1354.13 ave        2512 max        1043 min
Histogram: 480 0 0 0 0 0 0 0 0 120
Nghost:        8627.17 ave       15999 max        6707 min
Histogram: 480 0 0 0 0 0 0 0 0 120
Neighs:        41634.3 ave       44975 max       39276 min
Histogram: 9 44 96 142 129 111 51 9 5 4

Total # of neighbors = 24980556
Ave neighs/atom = 30.746132
Ave special neighs/atom = 0.26782264
Neighbor list builds = 220
Dangerous builds = 0
Generated 0 of 10 mixed pair_coeff terms from geometric mixing rule
Last active /omp style is angle_style harmonic
Setting up Verlet run ...
  Unit style    : lj
  Current step  : 1000
  Time step     : 0.005
Per MPI rank memory allocation (min/avg/max) = 11.97 | 14 | 21.5 Mbytes
   Step          Temp          PotEng         KinEng         TotEng         Press          Volume           Lx             Ly             Lz      
      1000   0.79816261     2.3409418      1.1972424      3.5381843      1.1850974      738726.68      83.918541      83.918541      104.89818    
    100000   0.85837328     2.2178234      1.2875583      3.5053818      1.0069533      754907.82      84.526841      84.526841      105.65855    
    200000   0.86975291     2.2277562      1.3046278      3.532384       1.0031581      757967.9       84.640899      84.640899      105.80112    
    300000   0.87808028     2.2267112      1.3171188      3.54383        1.0076425      759307.31      84.690726      84.690726      105.86341    
    400000   0.88006566     2.2226758      1.3200969      3.5427727      0.98658005     760046.19      84.718188      84.718188      105.89773    
    500000   0.8846896      2.2224633      1.3270328      3.5494961      1.0046614      760538.16      84.736463      84.736463      105.92058    
    600000   0.8861691      2.216181       1.329252       3.545433       0.9908965      760993.16      84.753358      84.753358      105.9417     
    700000   0.88737327     2.2145046      1.3310583      3.5455628      1.0205736      761072.48      84.756302      84.756302      105.94538    
    701000   0.88729992     2.2156495      1.3309482      3.5465977      0.98913557     761253.26      84.763013      84.763013      105.95377    
Loop time of 2606.81 on 600 procs for 700000 steps with 812478 atoms

Performance: 116003.812 tau/day, 268.527 timesteps/s, 218.173 Matom-step/s
99.3% CPU use with 600 MPI tasks x 1 OpenMP threads

MPI task timing breakdown:
Section |  min time  |  avg time  |  max time  |%varavg| %total
---------------------------------------------------------------
Pair    | 317.27     | 355.41     | 409.48     | 111.3 | 13.63
Bond    | 1.8777     | 16.462     | 46.697     | 332.8 |  0.63
Neigh   | 1173.1     | 1226.7     | 1278.4     |  77.9 | 47.06
Comm    | 488.38     | 632.61     | 811.94     | 335.5 | 24.27
Output  | 0.024481   | 0.25943    | 0.88418    |  42.5 |  0.01
Modify  | 233.51     | 347.71     | 476.59     | 333.2 | 13.34
Other   |            | 27.68      |            |       |  1.06

Nlocal:        1354.13 ave        2503 max        1026 min
Histogram: 480 0 0 0 0 0 0 0 0 120
Nghost:        8508.95 ave       15831 max        6489 min
Histogram: 480 0 0 0 0 0 0 0 0 120
Neighs:          40493 ave       45399 max       36910 min
Histogram: 21 80 102 85 75 94 90 42 10 1

Total # of neighbors = 24295792
Ave neighs/atom = 29.903323
Ave special neighs/atom = 0.26782264
Neighbor list builds = 120512
Dangerous builds = 0
System init for write_restart ...
Generated 0 of 10 mixed pair_coeff terms from geometric mixing rule
Last active /omp style is angle_style harmonic
System init for write_data ...
Generated 0 of 10 mixed pair_coeff terms from geometric mixing rule
Last active /omp style is angle_style harmonic
WARNING: Not all mixed pair coeffs generated from mixing. Use write_data with 'pair ij' option to store all pair coeffs. (src/write_data.cpp:364)
Total wall time: 0:44:02
======================================
Running post-processing...
======================================
Generating convergence plot...
Plot saved to ./output_plots/convergence_plots/slab_support_tall_angle_2_1.5_1.4_700000_convergence.png
Generating stress profiles...
No stress data found for slab_support_tall_angle_2_1.5_1.4_700000, skipping stress plots
No volume data found for slab_support_tall_angle_2_1.5_1.4_700000, skipping volume fraction plots
Generating piston plots...
Error: Piston position file not found: ./output_files/piston_data/piston_position_slab_support_tall_angle_2_1.5_1.4_700000.dat
Generating computational efficiency plot...
Found data file: ./data_files/slab_support_tall_angle_2.data
Mobile atoms: 644834
Tracking info written to /jet/home/dpollard/Documents/lammps_work/tracking.txt
Saved /jet/home/dpollard/Documents/lammps_work/time_vs_atoms.png
Saved /jet/home/dpollard/Documents/lammps_work/time_vs_timesteps.png
======================================
Done! Results are in: /jet/home/dpollard/Documents/lammps_runs/slab_with_support_slab_support_tall_angle_2_1.5_1.4_20260205_174936
======================================
