======================================
Working directory: /jet/home/dpollard/Documents/lammps_runs/slab_with_support_slab_support_5beads_tall_3_1.0_1.4_20260128_115714
Trajectory directory (scratch): /ocean/projects/chm250028p/dpollard/lammps_trajectories/slab_with_support_slab_support_5beads_tall_3_1.0_1.4_20260128_115714
======================================
Running LAMMPS in slab_with_support with:
  dataname=slab_support_5beads_tall_3
  epsSS=1.0, epsSP=1.4
  nsteps=20000000, oldsteps=0, totsteps=20000000
SLURM tasks per node: 120
SLURM CPUs per task: 1
SLURM_GPUS_ON_NODE: 
GPUs allocated: 
Running CPU-only with 600 tasks
LAMMPS (22 Jul 2025)
OMP_NUM_THREADS environment is not set. Defaulting to 1 thread.
  using 1 OpenMP thread(s) per MPI task
using multi-threaded neighbor list subroutines
Reading data file ...
  orthogonal box = (0 0 0) to (69.6 69.6 100.8)
  6 by 10 by 10 MPI processor grid
  reading atoms ...
  758308 atoms
  scanning bonds ...
  3 = max bonds/atom
  orthogonal box = (0 0 0) to (69.6 69.6 100.8)
  6 by 10 by 10 MPI processor grid
  reading bonds ...
  147456 bonds
Finding 1-2 1-3 1-4 neighbors ...
  special bond factors lj:    0        0        0       
  special bond factors coul:  0        0        0       
     4 = max # of 1-2 neighbors
     4 = max # of 1-3 neighbors
     8 = max # of 1-4 neighbors
    12 = max # of special neighbors
  special bonds CPU = 0.141 seconds
  read_data CPU = 5.816 seconds
>>> is_restart = 0
>>> Previous    # of timesteps: 0
>>> Current     # of timesteps: 20000000
>>> Cumulative  # of timesteps: 20000000
130121 atoms in group polymer
488291 atoms in group solvent
69948 atoms in group support
69948 atoms in group piston
618412 atoms in group mobile
270017 atoms in group polymer_and_support
Finding 1-2 1-3 1-4 neighbors ...
  special bond factors lj:    0        1        1       
  special bond factors coul:  0        1        1       
     4 = max # of 1-2 neighbors
    12 = max # of special neighbors
  special bonds CPU = 0.044 seconds
Generated 0 of 10 mixed pair_coeff terms from geometric mixing rule
Last active /omp style is bond_style fene/omp
Neighbor list info ...
  update: every = 1 steps, delay = 0 steps, check = yes
  max neighbors/atom: 2000, page size: 100000
  master list distance cutoff = 2.8
  ghost atom cutoff = 5
  binsize = 1.4, bins = 50 50 72
  1 neighbor lists, perpetual/occasional/extra = 1 0 0
  (1) pair lj/cut/omp, perpetual
      attributes: half, newton on, omp
      pair build: half/bin/newton/omp
      stencil: half/bin/3d
      bin: standard
Setting up cg style minimization ...
  Unit style    : lj
  Current step  : 0
Per MPI rank memory allocation (min/avg/max) = 11.32 | 13.23 | 20.19 Mbytes
   Step          Temp          E_pair         E_mol          TotEng         Press     
         0   0              4.2456282e+19  17783.599      4.2456282e+19  2.6373549e+20
      3569   0             -4.6780877      4.3240199     -0.35406777     33.557078    
Loop time of 25.9189 on 600 procs for 3569 steps with 758308 atoms

99.4% CPU use with 600 MPI tasks x 1 OpenMP threads

Minimization stats:
  Stopping criterion = energy tolerance
  Energy initial, next-to-last, final = 
    4.24562822224367e+19 -0.354032943856236 -0.354067765626751
  Force two-norm initial, final = 4.1841555e+28 370.15784
  Force max component initial, final = 1.8345142e+28 152.25879
  Final line search alpha, max atom move = 0.0032427539 0.49373779
  Iterations, force evaluations = 3569 4194

MPI task timing breakdown:
Section |  min time  |  avg time  |  max time  |%varavg| %total
---------------------------------------------------------------
Pair    | 3.6334     | 5.5188     | 11.788     |  54.7 | 21.29
Bond    | 0.0032319  | 0.04743    | 0.12659    |  21.0 |  0.18
Neigh   | 8.949      | 9.4094     | 9.7825     |   6.7 | 36.30
Comm    | 2.8277     | 6.0409     | 10.692     |  48.3 | 23.31
Output  | 0          | 0          | 0          |   0.0 |  0.00
Modify  | 0.040838   | 0.067692   | 0.13105    |   6.9 |  0.26
Other   |            | 4.835      |            |       | 18.65

Nlocal:        1263.85 ave        2242 max         987 min
Histogram: 480 0 0 0 0 0 0 0 0 120
Nghost:          10174 ave       17843 max        8018 min
Histogram: 480 0 0 0 0 0 0 0 0 120
Neighs:        61022.6 ave       66123 max       56318 min
Histogram: 33 70 77 62 53 50 137 86 14 18

Total # of neighbors = 36613536
Ave neighs/atom = 48.283199
Ave special neighs/atom = 0.38890794
Neighbor list builds = 840
Dangerous builds = 24
Generated 0 of 10 mixed pair_coeff terms from geometric mixing rule
Last active /omp style is bond_style fene/omp
Setting up Verlet run ...
  Unit style    : lj
  Current step  : 0
  Time step     : 0.001
Per MPI rank memory allocation (min/avg/max) = 10.23 | 11.9 | 17.96 Mbytes
   Step          Temp          PotEng         KinEng         TotEng         Press          Volume           Lx             Ly             Lz      
         0   0.081551535   -0.35406777     0.12232714    -0.23174062     33.683726      488291.33      69.6           69.6           100.8        
      1000   0.53616906     0.4195084      0.80425253     1.2237609      39.866966      488291.33      69.6           69.6           100.8        
Loop time of 2.2065 on 600 procs for 1000 steps with 758308 atoms

Performance: 39157.110 tau/day, 453.207 timesteps/s, 343.671 Matom-step/s
99.4% CPU use with 600 MPI tasks x 1 OpenMP threads

MPI task timing breakdown:
Section |  min time  |  avg time  |  max time  |%varavg| %total
---------------------------------------------------------------
Pair    | 0.69569    | 0.76348    | 0.84596    |   3.6 | 34.60
Bond    | 0.00060507 | 0.0038953  | 0.0086315  |   4.8 |  0.18
Neigh   | 0.19958    | 0.20965    | 0.21905    |   1.1 |  9.50
Comm    | 0.65933    | 0.88472    | 1.1137     |  11.1 | 40.10
Output  | 8.5891e-05 | 0.00058201 | 0.0010348  |   0.0 |  0.03
Modify  | 0.071087   | 0.079806   | 0.097601   |   1.9 |  3.62
Other   |            | 0.2644     |            |       | 11.98

Nlocal:        1263.85 ave        2235 max         991 min
Histogram: 480 0 0 0 0 0 0 0 0 120
Nghost:        10175.8 ave       17837 max        8044 min
Histogram: 480 0 0 0 0 0 0 0 0 120
Neighs:        60920.9 ave       66074 max       56172 min
Histogram: 14 59 96 67 63 67 144 62 10 18

Total # of neighbors = 36552518
Ave neighs/atom = 48.202733
Ave special neighs/atom = 0.38890794
Neighbor list builds = 19
Dangerous builds = 0
Generated 0 of 10 mixed pair_coeff terms from geometric mixing rule
Last active /omp style is bond_style fene/omp
Setting up Verlet run ...
  Unit style    : lj
  Current step  : 0
  Time step     : 0.005
Per MPI rank memory allocation (min/avg/max) = 10.23 | 11.9 | 17.96 Mbytes
   Step          Temp          PotEng         KinEng         TotEng         Press          Volume           Lx             Ly             Lz      
         0   0.53616906     0.4195084      0.80425253     1.2237609      39.866966      488291.33      69.6           69.6           100.8        
      1000   0.77831589    -0.54281268     1.1674723      0.62465961     1.7327288      709283.76      78.823596      78.823596      114.15831    
Loop time of 4.27469 on 600 procs for 1000 steps with 758308 atoms

Performance: 101059.967 tau/day, 233.935 timesteps/s, 177.395 Matom-step/s
99.2% CPU use with 600 MPI tasks x 1 OpenMP threads

MPI task timing breakdown:
Section |  min time  |  avg time  |  max time  |%varavg| %total
---------------------------------------------------------------
Pair    | 0.528      | 0.58878    | 0.69534    |   4.3 | 13.77
Bond    | 0.000927   | 0.0075981  | 0.024757   |   6.8 |  0.18
Neigh   | 2.0712     | 2.1714     | 2.2743     |   3.4 | 50.80
Comm    | 0.77307    | 1.0049     | 1.2613     |  12.4 | 23.51
Output  | 9.8925e-05 | 0.00011874 | 0.00028308 |   0.0 |  0.00
Modify  | 0.31136    | 0.46688    | 0.61776    |  12.4 | 10.92
Other   |            | 0.03498    |            |       |  0.82

Nlocal:        1263.85 ave        2275 max         971 min
Histogram: 480 0 0 0 0 0 0 0 10 110
Nghost:        8349.44 ave       15148 max        6414 min
Histogram: 480 0 0 0 0 0 0 0 0 120
Neighs:        40010.9 ave       45268 max       36081 min
Histogram: 31 109 113 89 34 17 65 90 36 16

Total # of neighbors = 24006551
Ave neighs/atom = 31.658048
Ave special neighs/atom = 0.38890794
Neighbor list builds = 230
Dangerous builds = 0
Generated 0 of 10 mixed pair_coeff terms from geometric mixing rule
Last active /omp style is bond_style fene/omp
Setting up Verlet run ...
  Unit style    : lj
  Current step  : 1000
  Time step     : 0.005
Per MPI rank memory allocation (min/avg/max) = 10.24 | 11.91 | 17.96 Mbytes
   Step          Temp          PotEng         KinEng         TotEng         Press          Volume           Lx             Ly             Lz      
      1000   0.77831589    -0.54281268     1.1674723      0.62465961     1.7327288      709283.76      78.823596      78.823596      114.15831    
    100000   0.87472663    -0.1289301      1.3120882      1.1831581      0.99762604     781370.44      81.408277      81.408277      117.90164    
    200000   0.88612769    -0.11821255     1.3291898      1.2109772      1.0073467      783229.71      81.472796      81.472796      117.99508    
    300000   0.89211812    -0.11621037     1.3381754      1.221965       1.0061566      783659.66      81.487701      81.487701      118.01667    
    400000   0.8962126     -0.11126234     1.3443171      1.2330548      1.0058345      784394.94      81.513179      81.513179      118.05357    
    500000   0.89782287    -0.1091569      1.3467325      1.2375756      0.99974342     785076.94      81.536796      81.536796      118.08777    
    600000   0.89780757    -0.1131263      1.3467096      1.2335833      0.99188713     784562.15      81.51897       81.51897       118.06196    
    700000   0.89928722    -0.11006784     1.3489291      1.2388612      1.0000001      784911.23      81.531059      81.531059      118.07946    
    800000   0.90068943    -0.11433361     1.3510324      1.2366988      1.0082543      784349.08      81.51159       81.51159       118.05127    
    900000   0.90201948    -0.11217293     1.3530274      1.2408545      1.0201901      784190.27      81.506089      81.506089      118.0433     
   1000000   0.90362497    -0.11433515     1.3554357      1.2411005      1.0078854      784294.32      81.509693      81.509693      118.04852    
   1100000   0.90345885    -0.11338283     1.3551865      1.2418037      0.99566224     784552.67      81.518642      81.518642      118.06148    
   1200000   0.90124148    -0.11554093     1.3518604      1.2363195      1.0054257      783905.42      81.496218      81.496218      118.02901    
   1300000   0.90230314    -0.11686906     1.3534529      1.2365839      0.99618238     783677.09      81.488305      81.488305      118.01755    
   1400000   0.90238342    -0.1147527      1.3535733      1.2388206      1.002784       784090.87      81.502645      81.502645      118.03831    
   1500000   0.90263262    -0.11900617     1.3539471      1.234941       0.9922884      783753.58      81.490957      81.490957      118.02139    
   1600000   0.9042982     -0.11993966     1.3564455      1.2365059      1.0018694      783502.04      81.482237      81.482237      118.00876    
   1700000   0.90386653    -0.12007578     1.355798       1.2357222      1.0112029      783256.15      81.473713      81.473713      117.99641    
   1800000   0.90250675    -0.12112282     1.3537583      1.2326355      1.001623       783234.93      81.472977      81.472977      117.99535    
   1900000   0.9044804     -0.12043544     1.3567188      1.2362834      1.0071436      783472.58      81.481216      81.481216      118.00728    
   2000000   0.90264963    -0.11949103     1.3539727      1.2344816      0.97328362     784056.7       81.501461      81.501461      118.0366     
   2100000   0.90194882    -0.12171543     1.3529214      1.231206       0.99651896     783161.84      81.470443      81.470443      117.99168    
   2200000   0.90331557    -0.12097091     1.3549716      1.2340007      1.0076533      783028.63      81.465823      81.465823      117.98499    
   2300000   0.90188022    -0.12081264     1.3528186      1.2320059      0.990212       783512.69      81.482607      81.482607      118.00929    
   2400000   0.90398208    -0.12161686     1.3559713      1.2343545      1.0110493      782948.82      81.463055      81.463055      117.98098    
   2500000   0.90382989    -0.12226615     1.3557431      1.2334769      0.98836449     783206.75      81.472         81.472         117.99393    
   2600000   0.90371512    -0.12180927     1.3555709      1.2337616      1.0056107      783408.29      81.478988      81.478988      118.00405    
   2700000   0.90338032    -0.12274454     1.3550687      1.2323241      0.99068172     783076.68      81.467489      81.467489      117.9874     
   2800000   0.90159682    -0.12083525     1.3523934      1.2315582      0.99040988     783543.16      81.483663      81.483663      118.01082    
   2900000   0.90343754    -0.12212159     1.3551545      1.2330329      0.99824538     783125.95      81.469198      81.469198      117.98987    
   3000000   0.90206252    -0.12189665     1.353092       1.2311953      1.0090608      782977.05      81.464034      81.464034      117.98239    
   3100000   0.90179647    -0.12584305     1.3526929      1.2268499      0.98792485     782708.01      81.454702      81.454702      117.96888    
   3200000   0.90218108    -0.12132929     1.3532698      1.2319406      1.0046733      783035.41      81.466058      81.466058      117.98533    
   3300000   0.9016194     -0.12069618     1.3524273      1.2317311      0.98278099     783601.96      81.485701      81.485701      118.01377    
   3400000   0.90329363    -0.1231696      1.3549387      1.2317691      1.0099952      782822.37      81.458669      81.458669      117.97462    
   3500000   0.90250831    -0.12319896     1.3537607      1.2305617      0.99572577     782819.24      81.458561      81.458561      117.97447    
   3600000   0.90250689    -0.12276221     1.3537586      1.2309963      0.98216875     783098.27      81.468238      81.468238      117.98848    
   3700000   0.90350407    -0.1211576      1.3552543      1.2340967      0.98676957     783627.51      81.486587      81.486587      118.01506    
   3800000   0.90235505    -0.12117345     1.3535308      1.2323573      0.98869962     783116.45      81.468868      81.468868      117.9894     
   3900000   0.90329607    -0.12230813     1.3549423      1.2326342      1.0061425      783016.2       81.465392      81.465392      117.98436    
   4000000   0.90311016    -0.12117046     1.3546635      1.233493       1.0139862      783261.72      81.473906      81.473906      117.99669    
   4100000   0.90198475    -0.12343646     1.3529753      1.2295389      0.99378347     782980.81      81.464165      81.464165      117.98258    
   4200000   0.90171188    -0.1237738      1.352566       1.2287922      1.0015803      782992.67      81.464576      81.464576      117.98318    
   4300000   0.90514733    -0.12318838     1.3577192      1.2345308      0.99760804     783104.71      81.468461      81.468461      117.98881    
   4400000   0.90185347    -0.12592032     1.3527784      1.2268581      0.99683898     782836.49      81.459159      81.459159      117.97533    
   4500000   0.90312617    -0.12403212     1.3546875      1.2306553      1.0054517      782702.15      81.454499      81.454499      117.96859    
   4600000   0.90329688    -0.1230591      1.3549435      1.2318844      1.0032188      782710.63      81.454793      81.454793      117.96901    
   4700000   0.90327512    -0.12415154     1.3549109      1.2307594      1.0058351      782515.38      81.44802       81.44802       117.9592     
   4800000   0.9037276     -0.12299151     1.3555896      1.2325981      0.99753702     783124.43      81.469145      81.469145      117.9898     
   4900000   0.90492325    -0.11945188     1.3573831      1.2379312      0.99006061     783552.2       81.483976      81.483976      118.01128    
   5000000   0.90499346    -0.12328252     1.3574884      1.2342059      1.0070452      782833.64      81.45906       81.45906       117.97519    
   5100000   0.90356449    -0.11930144     1.3553449      1.2360435      1.0055579      783374.13      81.477803      81.477803      118.00234    
   5200000   0.90314729    -0.12222516     1.3547192      1.232494       1.0055586      782931.37      81.46245       81.46245       117.9801     
   5300000   0.90211741    -0.12360773     1.3531743      1.2295666      0.992278       782939.59      81.462735      81.462735      117.98051    
   5400000   0.90218645    -0.12546094     1.3532779      1.227817       0.99407557     782423.38      81.444828      81.444828      117.95458    
   5500000   0.90186381    -0.12126919     1.3527939      1.2315247      0.98658522     783258.83      81.473806      81.473806      117.99655    
   5600000   0.90236293    -0.12433945     1.3535426      1.2292032      0.9852652      783118.99      81.468957      81.468957      117.98952    
   5700000   0.90364739    -0.12377906     1.3554693      1.2316902      1.0105588      782460.89      81.446129      81.446129      117.95646    
   5800000   0.90234593    -0.12379976     1.3535171      1.2297173      0.99413356     782827.78      81.458857      81.458857      117.9749     
   5900000   0.90153835    -0.12257956     1.3523057      1.2297262      1.005952       782897.58      81.461278      81.461278      117.9784     
   6000000   0.9044072     -0.12317884     1.356609       1.2334302      0.99849154     783025.9       81.465728      81.465728      117.98485    
   6100000   0.90351201    -0.12056388     1.3552662      1.2347023      0.98882572     783527.53      81.483121      81.483121      118.01004    
   6200000   0.90448226    -0.12391603     1.3567216      1.2328056      1.0037889      782764.41      81.456659      81.456659      117.97171    
   6300000   0.90411796    -0.12169713     1.3561752      1.234478       1.0035486      783211.44      81.472162      81.472162      117.99417    
   6400000   0.90207643    -0.12415656     1.3531129      1.2289563      0.99989022     782861.16      81.460015      81.460015      117.97657    
   6500000   0.90367764    -0.122202       1.3555147      1.2333127      0.99899483     783107.46      81.468557      81.468557      117.98894    
   6600000   0.90386164    -0.12042118     1.3557907      1.2353695      1.0080228      783213.61      81.472238      81.472238      117.99428    
   6700000   0.90321398    -0.12196007     1.3548192      1.2328591      1.0002299      783152.34      81.470113      81.470113      117.9912     
   6800000   0.90284735    -0.12345546     1.3542692      1.2308138      0.98639851     783090.28      81.467961      81.467961      117.98808    
   6900000   0.90461871    -0.11980695     1.3569263      1.2371193      1.011405       783028.72      81.465826      81.465826      117.98499    
   7000000   0.90302438    -0.11992157     1.3545348      1.2346132      1.0016513      783209.17      81.472084      81.472084      117.99405    
   7100000   0.90366995    -0.12276015     1.3555031      1.232743       1.0061353      783066.18      81.467125      81.467125      117.98687    
   7200000   0.90363957    -0.12445417     1.3554576      1.2310034      0.99778861     782897.84      81.461287      81.461287      117.97842    
   7300000   0.90278673    -0.12055912     1.3541783      1.2336192      1.0063278      783425.43      81.479582      81.479582      118.00491    
   7400000   0.90228799    -0.12292855     1.3534302      1.2305017      0.99685283     782982.35      81.464218      81.464218      117.98266    
   7500000   0.90272179    -0.124325       1.3540809      1.2297559      0.98708244     783040.81      81.466245      81.466245      117.9856     
   7600000   0.90180351    -0.12291363     1.3527035      1.2297899      0.99770653     782900.89      81.461393      81.461393      117.97857    
   7700000   0.90271975    -0.12166607     1.3540778      1.2324118      1.0103185      782833.39      81.459052      81.459052      117.97518    
   7800000   0.90264221    -0.12279448     1.3539615      1.231167       0.99629484     782794.72      81.45771       81.45771       117.97324    
   7900000   0.90213851    -0.12504713     1.353206       1.2281589      0.98925001     782884.04      81.460808      81.460808      117.97772    
   8000000   0.90326115    -0.12307343     1.3548899      1.2318165      0.99455087     783005.7       81.465028      81.465028      117.98383    
   8100000   0.90475626    -0.1213864      1.3571326      1.2357462      1.0075116      782883.96      81.460806      81.460806      117.97772    
   8200000   0.90342464    -0.12410993     1.3551352      1.2310252      0.99857486     782899.19      81.461334      81.461334      117.97848    
   8300000   0.90368346    -0.12618915     1.3555234      1.2293343      0.99184253     782503.09      81.447594      81.447594      117.95858    
   8400000   0.90391836    -0.1205573      1.3558758      1.2353185      0.9850188      783380.01      81.478007      81.478007      118.00263    
   8500000   0.903443      -0.1222189      1.3551627      1.2329438      0.98701057     782883.57      81.460792      81.460792      117.9777     
   8600000   0.9040226     -0.12338324     1.3560321      1.2326489      0.98672839     783006.25      81.465047      81.465047      117.98386    
   8700000   0.90194386    -0.12580052     1.352914       1.2271135      0.98248974     782748.06      81.456092      81.456092      117.97089    
   8800000   0.90356473    -0.12341646     1.3553453      1.2319289      1.0061415      782654.09      81.452832      81.452832      117.96617    
   8900000   0.90157349    -0.1239772      1.3523585      1.2283813      0.99748232     782502.75      81.447581      81.447581      117.95857    
   9000000   0.90197526    -0.12011375     1.3529611      1.2328474      1.0061791      782783.31      81.457315      81.457315      117.97266    
   9100000   0.90236716    -0.1235332      1.353549       1.2300158      0.98318495     782768.62      81.456805      81.456805      117.97192    
   9200000   0.90305691    -0.12300921     1.3545836      1.2315744      0.9942724      782750.71      81.456184      81.456184      117.97102    
   9300000   0.90260191    -0.12096476     1.3539011      1.2329363      0.99265192     783570.36      81.484606      81.484606      118.01219    
   9400000   0.9023114     -0.12270145     1.3534653      1.2307639      1.0162653      782700.16      81.45443       81.45443       117.96849    
   9500000   0.90366113    -0.12320958     1.3554899      1.2322803      1.0012274      782799.83      81.457888      81.457888      117.97349    
   9600000   0.90247979    -0.12244862     1.3537179      1.2312693      0.99936569     783180.21      81.471079      81.471079      117.9926     
   9700000   0.90254359    -0.12402414     1.3538136      1.2297895      0.99735635     782726.17      81.455333      81.455333      117.96979    
   9800000   0.90298929    -0.12281522     1.3544822      1.2316669      0.99975274     783081.09      81.467642      81.467642      117.98762    
   9900000   0.9037625     -0.12107309     1.355642       1.2345689      0.98489787     783281.97      81.474608      81.474608      117.99771    
  10000000   0.90442311    -0.12430701     1.3566329      1.2323259      1.0104626      782475.12      81.446623      81.446623      117.95718    
  10100000   0.9017103     -0.12076163     1.3525637      1.231802       1.0025698      783114.72      81.468808      81.468808      117.98931    
  10200000   0.903307      -0.12202478     1.3549587      1.2329339      1.0020961      782997.23      81.464734      81.464734      117.98341    
  10300000   0.90355177    -0.12441457     1.3553259      1.2309113      1.0083653      782417.49      81.444623      81.444623      117.95428    
  10400000   0.90296573    -0.11977286     1.3544468      1.234674       1.0024088      783335.23      81.476455      81.476455      118.00038    
  10500000   0.9031512     -0.12132599     1.354725       1.233399       0.99634204     783213.3       81.472227      81.472227      117.99426    
  10600000   0.90544959    -0.12438356     1.3581726      1.233789       1.0006156      782955.84      81.463299      81.463299      117.98133    
  10700000   0.90525364    -0.1230514      1.3578787      1.2348273      1.0124824      782387.21      81.443573      81.443573      117.95276    
  10800000   0.90394885    -0.12479191     1.3559215      1.2311296      0.99578223     782738.31      81.455754      81.455754      117.9704     
  10900000   0.90267893    -0.12300803     1.3540166      1.2310086      1.0094028      782739.4       81.455792      81.455792      117.97046    
  11000000   0.90443343    -0.12408687     1.3566484      1.2325615      1.0044104      782872.1       81.460394      81.460394      117.97712    
  11100000   0.9038658     -0.12491644     1.3557969      1.2308805      0.99218931     782749.13      81.456129      81.456129      117.97095    
  11200000   0.9027434     -0.1281788      1.3541133      1.2259345      0.9955365      782429.82      81.445051      81.445051      117.9549     
  11300000   0.90202417    -0.12505418     1.3530345      1.2279803      0.98565945     783052.62      81.466655      81.466655      117.98619    
  11400000   0.90321212    -0.12322562     1.3548164      1.2315908      0.98556011     782882.42      81.460752      81.460752      117.97764    
  11500000   0.90284783    -0.12107486     1.35427        1.2331951      1.0019098      783255.86      81.473703      81.473703      117.9964     
  11600000   0.90371223    -0.12241092     1.3555666      1.2331556      0.98601003     782969.41      81.463769      81.463769      117.98201    
  11700000   0.90404209    -0.12518252     1.3560613      1.2308788      0.98828117     782877.39      81.460578      81.460578      117.97739    
  11800000   0.90278863    -0.12330278     1.3541812      1.2308784      0.98788579     783130.08      81.469341      81.469341      117.99008    
  11900000   0.90353343    -0.12219144     1.3552984      1.2331069      0.99845648     782781.1       81.457238      81.457238      117.97255    
  12000000   0.90371025    -0.12173662     1.3555636      1.233827       1.0033319      782953.98      81.463234      81.463234      117.98124    
  12100000   0.90324472    -0.12154163     1.3548653      1.2333237      1.0004939      783046.08      81.466428      81.466428      117.98586    
  12200000   0.90496017    -0.12553444     1.3574385      1.231904       1.0033718      782625.72      81.451848      81.451848      117.96475    
  12300000   0.90260428    -0.12646137     1.3539046      1.2274433      1.0091894      782140.55      81.435013      81.435013      117.94036    
  12400000   0.90355658    -0.12512645     1.3553331      1.2302066      1.0003409      782539         81.448839      81.448839      117.96039    
  12500000   0.90365755    -0.12236852     1.3554845      1.233116       0.99060774     783043         81.466321      81.466321      117.98571    
  12600000   0.90248057    -0.12383312     1.3537191      1.229886       1.0029515      782748.03      81.456091      81.456091      117.97089    
  12700000   0.9035179     -0.12144036     1.3552751      1.2338347      0.99876164     783231.65      81.472863      81.472863      117.99518    
  12800000   0.90177215    -0.12579863     1.3526564      1.2268578      1.0068339      782415.57      81.444557      81.444557      117.95419    
  12900000   0.90173491    -0.12269414     1.3526006      1.2299064      0.99333368     783179.34      81.471049      81.471049      117.99255    
  13000000   0.90345829    -0.12157515     1.3551856      1.2336105      1.0142917      782934.26      81.46255       81.46255       117.98024    
  13100000   0.9034687     -0.12298841     1.3552013      1.2322129      0.98614032     783072.37      81.46734       81.46734       117.98718    
  13200000   0.90349036    -0.12341442     1.3552338      1.2318193      1.0011002      782931.15      81.462442      81.462442      117.98009    
  13300000   0.9033425     -0.12066391     1.355012       1.234348       0.99245564     783432.74      81.479835      81.479835      118.00528    
  13400000   0.90361494    -0.12378155     1.3554206      1.2316391      1.0066125      782504.09      81.447628      81.447628      117.95863    
  13500000   0.90305307    -0.12261277     1.3545778      1.231965       0.99015159     782823.83      81.45872       81.45872       117.9747     
  13600000   0.90276972    -0.123691       1.3541528      1.2304618      0.9891666      783050.59      81.466585      81.466585      117.98609    
  13700000   0.90315125    -0.12143285     1.3547251      1.2332922      1.0070163      782942.6       81.46284       81.46284       117.98066    
  13800000   0.90080794    -0.12355536     1.3512101      1.2276548      1.0035051      782701.03      81.45446       81.45446       117.96853    
  13900000   0.90367326    -0.12432442     1.3555081      1.2311837      0.98961375     783052.21      81.466641      81.466641      117.98617    
  14000000   0.9028183     -0.12320111     1.3542257      1.2310246      0.98793456     783050.07      81.466566      81.466566      117.98606    
  14100000   0.9050387     -0.12252233     1.3575563      1.2350339      0.99026522     783372.52      81.477747      81.477747      118.00225    
  14200000   0.90193791    -0.12397668     1.3529051      1.2289284      1.0072026      782709.38      81.45475       81.45475       117.96895    
  14300000   0.90228676    -0.1216455      1.3534284      1.2317829      1.0028427      782886.39      81.46089       81.46089       117.97784    
  14400000   0.90376299    -0.12462008     1.3556427      1.2310226      0.97983946     783026.89      81.465763      81.465763      117.9849     
  14500000   0.90525529    -0.12131989     1.3578811      1.2365613      0.99777566     783118.88      81.468953      81.468953      117.98952    
  14600000   0.90175968    -0.12669281     1.3526377      1.2259449      0.99588583     782401.63      81.444073      81.444073      117.95348    
  14700000   0.90260207    -0.12261563     1.3539013      1.2312857      0.98558304     783009.66      81.465165      81.465165      117.98403    
  14800000   0.9037582     -0.12808722     1.3556355      1.2275483      0.99304691     782417.44      81.444622      81.444622      117.95428    
  14900000   0.90183172    -0.12302972     1.3527458      1.2297161      1.0019964      782741.87      81.455877      81.455877      117.97058    
  15000000   0.90239664    -0.1221125      1.3535932      1.2314807      0.99601699     783133.04      81.469444      81.469444      117.99023    
  15100000   0.90337563    -0.12140716     1.3550617      1.2336545      1.0008692      783013.19      81.465288      81.465288      117.98421    
  15200000   0.90410193    -0.12493959     1.3561511      1.2312115      0.9974529      782832.63      81.459025      81.459025      117.97514    
  15300000   0.9023188     -0.12412612     1.3534764      1.2293503      1.0074241      782585.1       81.450439      81.450439      117.9627     
  15400000   0.90216188    -0.12152511     1.353241       1.2317159      0.99459411     782888.69      81.46097       81.46097       117.97796    
  15500000   0.90364689    -0.12090394     1.3554685      1.2345646      1.0163416      782780.75      81.457226      81.457226      117.97253    
  15600000   0.90224894    -0.12251745     1.3533716      1.2308542      1.009699       782827.04      81.458831      81.458831      117.97486    
  15700000   0.90408188    -0.12584375     1.356121       1.2302773      0.99860002     782457.88      81.446025      81.446025      117.95631    
  15800000   0.9026014     -0.12243793     1.3539003      1.2314624      1.0005153      782931.3       81.462448      81.462448      117.9801     
  15900000   0.90228442    -0.12538965     1.3534248      1.2280352      1.004055       782597.81      81.45088       81.45088       117.96334    
  16000000   0.90305215    -0.12173014     1.3545764      1.2328463      1.0087343      782655.01      81.452864      81.452864      117.96622    
  16100000   0.90428822    -0.12264749     1.3564305      1.2337831      1.0024973      782769.69      81.456842      81.456842      117.97198    
  16200000   0.90234764    -0.12033439     1.3535197      1.2331853      0.99888473     783445.67      81.480283      81.480283      118.00593    
  16300000   0.902988      -0.12323707     1.3544802      1.2312431      1.0049456      782726.9       81.455358      81.455358      117.96983    
  16400000   0.90425428    -0.12490505     1.3563796      1.2314746      1.0097146      782381.87      81.443388      81.443388      117.95249    
  16500000   0.90331085    -0.1246788      1.3549645      1.2302857      0.99272053     782717.93      81.455047      81.455047      117.96938    
  16600000   0.9037811     -0.12185775     1.3556699      1.2338121      1.0090572      782779.12      81.457169      81.457169      117.97245    
  16700000   0.90333396    -0.12437362     1.3549992      1.2306255      1.0063176      782734.23      81.455612      81.455612      117.9702     
  16800000   0.9014105     -0.12283352     1.352114       1.2292804      0.99327138     782925.02      81.46223       81.46223       117.97978    
  16900000   0.90335215    -0.12422226     1.3550264      1.2308042      1.0088207      782399.75      81.444008      81.444008      117.95339    
  17000000   0.90359471    -0.12419685     1.3553903      1.2311934      1.0135557      782571.31      81.44996       81.44996       117.96201    
  17100000   0.90461929    -0.12152542     1.3569271      1.2354017      1.0032963      782983.91      81.464272      81.464272      117.98274    
  17200000   0.9032503     -0.1229702      1.3548737      1.2319035      0.98864305     783122.84      81.46909       81.46909       117.98972    
  17300000   0.90291546    -0.12117895     1.3543714      1.2331925      0.9940295      783147.15      81.469933      81.469933      117.99094    
  17400000   0.90350425    -0.1204757      1.3552546      1.2347789      1.0038135      783194.77      81.471584      81.471584      117.99333    
  17500000   0.90386685    -0.12275017     1.3557985      1.2330483      1.0119136      782930.84      81.462432      81.462432      117.98007    
  17600000   0.90398405    -0.12668879     1.3559743      1.2292855      1.016621       782349.26      81.442256      81.442256      117.95085    
  17700000   0.90339538    -0.11922326     1.3550913      1.235868       0.99871306     783347.65      81.476885      81.476885      118.00101    
  17800000   0.9031588     -0.12023338     1.3547364      1.234503       0.99899638     783078.58      81.467555      81.467555      117.98749    
  17900000   0.90187023    -0.12088883     1.3528036      1.2319147      0.99961768     782980.44      81.464152      81.464152      117.98256    
  18000000   0.90152925    -0.12156764     1.3522921      1.2307245      0.99783355     783066.91      81.467151      81.467151      117.98691    
  18100000   0.90432756    -0.12306694     1.3564896      1.2334226      0.99537273     783016.39      81.465398      81.465398      117.98437    
  18200000   0.90380311    -0.12303102     1.3557029      1.2326719      1.0065914      782703.04      81.45453       81.45453       117.96863    
  18300000   0.90365944    -0.12426644     1.3554874      1.2312209      0.99907991     782617.49      81.451562      81.451562      117.96433    
  18400000   0.90412528    -0.12398089     1.3561861      1.2322052      1.0022246      782427.19      81.44496       81.44496       117.95477    
  18500000   0.90123311    -0.12270182     1.3518479      1.2291461      0.99329283     782869.75      81.460313      81.460313      117.977      
  18600000   0.9035438     -0.12110026     1.3553139      1.2342136      1.0131036      782981.29      81.464181      81.464181      117.98261    
  18700000   0.90290043    -0.12255607     1.3543489      1.2317928      0.99523244     783064.91      81.467081      81.467081      117.98681    
  18800000   0.90391616    -0.12415926     1.3558725      1.2317132      0.99121508     782757.02      81.456402      81.456402      117.97134    
  18900000   0.90325787    -0.12179647     1.354885       1.2330886      0.99918086     782826         81.458795      81.458795      117.97481    
  19000000   0.90490213    -0.12726511     1.3573514      1.2300863      1.0002681      782234.67      81.438279      81.438279      117.94509    
  19100000   0.90460082    -0.12587271     1.3568994      1.2310267      0.99899533     782492.77      81.447235      81.447235      117.95806    
  19200000   0.9022207     -0.12643377     1.3533293      1.2268955      0.9960428      782376.15      81.443189      81.443189      117.9522     
  19300000   0.90492355    -0.12531063     1.3573835      1.2320729      0.99223675     782885.59      81.460862      81.460862      117.9778     
  19400000   0.90325534    -0.12072855     1.3548812      1.2341527      0.99535105     783096.32      81.468171      81.468171      117.98838    
  19500000   0.90400018    -0.12381916     1.3559985      1.2321793      1.0046688      782633.37      81.452113      81.452113      117.96513    
  19600000   0.90195129    -0.12313616     1.3529252      1.229789       0.99619925     782844.66      81.459442      81.459442      117.97574    
  19700000   0.90232315    -0.12232062     1.3534829      1.2311623      0.99707233     782780.47      81.457216      81.457216      117.97252    
  19800000   0.902169      -0.12509132     1.3532517      1.2281604      1.0010706      782573.37      81.450032      81.450032      117.96211    
  19900000   0.90310554    -0.12393988     1.3546565      1.2307166      1.0041185      782466.35      81.446319      81.446319      117.95674    
  20000000   0.90303847    -0.12223865     1.3545559      1.2323173      0.99864411     782868.43      81.460267      81.460267      117.97694    
  20001000   0.90068297    -0.12263622     1.3510227      1.2283864      0.99115538     782890.75      81.461041      81.461041      117.97806    
Loop time of 64879.3 on 600 procs for 20000000 steps with 758308 atoms

Performance: 133170.361 tau/day, 308.265 timesteps/s, 233.760 Matom-step/s
99.4% CPU use with 600 MPI tasks x 1 OpenMP threads

MPI task timing breakdown:
Section |  min time  |  avg time  |  max time  |%varavg| %total
---------------------------------------------------------------
Pair    | 7454.5     | 9197.3     | 10291      | 769.2 | 14.18
Bond    | 19.394     | 147.52     | 333.97     | 522.8 |  0.23
Neigh   | 25952      | 27283      | 28749      | 410.6 | 42.05
Comm    | 14223      | 18127      | 23682      |1596.3 | 27.94
Output  | 0.99438    | 3.2132     | 8.0368     | 143.6 |  0.00
Modify  | 6558.7     | 9384.6     | 13040      |1415.5 | 14.46
Other   |            | 736.5      |            |       |  1.14

Nlocal:        1263.85 ave        2228 max         936 min
Histogram: 270 210 0 0 0 0 0 0 38 82
Nghost:        7900.04 ave       14214 max        5848 min
Histogram: 478 2 0 0 0 0 0 0 0 120
Neighs:        36448.7 ave       41171 max       29116 min
Histogram: 39 31 26 48 47 70 75 51 137 76

Total # of neighbors = 21869199
Ave neighs/atom = 28.839468
Ave special neighs/atom = 0.38890794
Neighbor list builds = 3458702
Dangerous builds = 0
System init for write_restart ...
Generated 0 of 10 mixed pair_coeff terms from geometric mixing rule
Last active /omp style is bond_style fene/omp
System init for write_data ...
Generated 0 of 10 mixed pair_coeff terms from geometric mixing rule
Last active /omp style is bond_style fene/omp
WARNING: Not all mixed pair coeffs generated from mixing. Use write_data with 'pair ij' option to store all pair coeffs. (src/write_data.cpp:364)
Total wall time: 18:02:00
======================================
Running post-processing...
======================================
Generating convergence plot...
Plot saved to ./output_plots/convergence_plots/slab_support_5beads_tall_3_1.0_1.4_20000000_convergence.png
Generating stress profiles...
No stress data found for slab_support_5beads_tall_3_1.0_1.4_20000000, skipping stress plots
No volume data found for slab_support_5beads_tall_3_1.0_1.4_20000000, skipping volume fraction plots
Generating piston plots...
Error: Piston position file not found: ./output_files/piston_data/piston_position_slab_support_5beads_tall_3_1.0_1.4_20000000.dat
Generating computational efficiency plot...
Found data file: ./data_files/slab_support_5beads_tall_3.data
Mobile atoms: 618410
Tracking info written to /jet/home/dpollard/Documents/lammps_work/tracking.txt
Saved /jet/home/dpollard/Documents/lammps_work/time_vs_atoms.png
Saved /jet/home/dpollard/Documents/lammps_work/time_vs_timesteps.png
======================================
Done! Results are in: /jet/home/dpollard/Documents/lammps_runs/slab_with_support_slab_support_5beads_tall_3_1.0_1.4_20260128_115714
======================================
