======================================
Working directory: /jet/home/dpollard/Documents/lammps_runs/slab_with_support_slab_support_tall_angle_7_1.0_1.0_20260210_034158
Trajectory directory (scratch): /ocean/projects/chm250028p/dpollard/lammps_trajectories/slab_with_support_slab_support_tall_angle_7_1.0_1.0_20260210_034158
======================================
Running LAMMPS in slab_with_support with:
  dataname=slab_support_tall_angle_7
  epsSS=1.0, epsSP=1.0
  nsteps=1000001, oldsteps=0, totsteps=1000001
SLURM tasks per node: 120
SLURM CPUs per task: 1
SLURM_GPUS_ON_NODE: 
GPUs allocated: 
Running CPU-only with 600 tasks
LAMMPS (22 Jul 2025)
OMP_NUM_THREADS environment is not set. Defaulting to 1 thread.
  using 1 OpenMP thread(s) per MPI task
using multi-threaded neighbor list subroutines
Reading data file ...
  orthogonal box = (0 0 0) to (89.6 89.6 147)
  6 by 10 by 10 MPI processor grid
  reading atoms ...
  1466603 atoms
  scanning bonds ...
  3 = max bonds/atom
  scanning angles ...
  6 = max angles/atom
  orthogonal box = (0 0 0) to (89.6 89.6 147)
  6 by 10 by 10 MPI processor grid
  reading bonds ...
  61440 bonds
  reading angles ...
  89790 angles
Finding 1-2 1-3 1-4 neighbors ...
  special bond factors lj:    0        0        0       
  special bond factors coul:  0        0        0       
     4 = max # of 1-2 neighbors
     4 = max # of 1-3 neighbors
     8 = max # of 1-4 neighbors
    12 = max # of special neighbors
  special bonds CPU = 0.172 seconds
  read_data CPU = 4.232 seconds
>>> is_restart = 0
>>> Previous    # of timesteps: 0
>>> Current     # of timesteps: 1000001
>>> Cumulative  # of timesteps: 1000001
54400 atoms in group polymer
1180139 atoms in group solvent
116032 atoms in group support
116032 atoms in group piston
1234539 atoms in group mobile
286464 atoms in group polymer_and_support
Finding 1-2 1-3 1-4 neighbors ...
  special bond factors lj:    0        1        1       
  special bond factors coul:  0        1        1       
     4 = max # of 1-2 neighbors
    12 = max # of special neighbors
  special bonds CPU = 0.068 seconds
Generated 0 of 10 mixed pair_coeff terms from geometric mixing rule
Last active /omp style is angle_style harmonic
Neighbor list info ...
  update: every = 1 steps, delay = 0 steps, check = yes
  max neighbors/atom: 2000, page size: 100000
  master list distance cutoff = 2.8
  ghost atom cutoff = 5
  binsize = 1.4, bins = 64 64 105
  1 neighbor lists, perpetual/occasional/extra = 1 0 0
  (1) pair lj/cut/omp, perpetual
      attributes: half, newton on, omp
      pair build: half/bin/newton/omp
      stencil: half/bin/3d
      bin: standard
Setting up cg style minimization ...
  Unit style    : lj
  Current step  : 0
Per MPI rank memory allocation (min/avg/max) = 15.62 | 17.96 | 26.48 Mbytes
   Step          Temp          E_pair         E_mol          TotEng         Press     
         0   0              1.2172646e+19  2.6738699      1.2172646e+19  6.050959e+19 
       532   0             -5.7396694      2.6096088     -3.1300606      4.6615241    
Loop time of 6.08513 on 600 procs for 532 steps with 1466603 atoms

99.2% CPU use with 600 MPI tasks x 1 OpenMP threads

Minimization stats:
  Stopping criterion = energy tolerance
  Energy initial, next-to-last, final = 
    1.2172646317842e+19  -3.12981557265361   -3.1300605610524
  Force two-norm initial, final = 2.8436079e+28 2762.3351
  Force max component initial, final = 1.8073849e+28 391.0911
  Final line search alpha, max atom move = 1.869162e-05 0.0073101263
  Iterations, force evaluations = 532 596

MPI task timing breakdown:
Section |  min time  |  avg time  |  max time  |%varavg| %total
---------------------------------------------------------------
Pair    | 1.0332     | 1.2485     | 2.1255     |  10.8 | 20.52
Bond    | 0.0015288  | 0.0104     | 0.025979   |   7.8 |  0.17
Neigh   | 2.4112     | 2.5322     | 2.6256     |   3.2 | 41.61
Comm    | 0.62332    | 1.0964     | 1.7569     |  19.8 | 18.02
Output  | 0          | 0          | 0          |   0.0 |  0.00
Modify  | 0.012596   | 0.023637   | 0.044388   |   4.2 |  0.39
Other   |            | 1.174      |            |       | 19.29

Nlocal:        2444.34 ave        4092 max        1924 min
Histogram: 318 162 0 0 0 0 0 0 10 110
Nghost:        12512.6 ave       22277 max        9581 min
Histogram: 479 1 0 0 0 0 0 0 0 120
Neighs:        97884.2 ave      115900 max       84281 min
Histogram: 40 108 117 70 40 39 27 80 73 6

Total # of neighbors = 58730548
Ave neighs/atom = 40.045294
Ave special neighs/atom = 0.083785455
Neighbor list builds = 138
Dangerous builds = 17
Generated 0 of 10 mixed pair_coeff terms from geometric mixing rule
Last active /omp style is angle_style harmonic
Setting up Verlet run ...
  Unit style    : lj
  Current step  : 0
  Time step     : 0.001
Per MPI rank memory allocation (min/avg/max) = 14.49 | 16.62 | 24.23 Mbytes
   Step          Temp          PotEng         KinEng         TotEng         Press          Volume           Lx             Ly             Lz      
         0   0.084176757   -3.1300606      0.12626505    -3.0037955      4.7661335      1180139.5      89.6           89.6           147          
      1000   0.59424636    -2.4893301      0.89136893    -1.5979612      9.2386757      1180139.5      89.6           89.6           147          
Loop time of 3.56885 on 600 procs for 1000 steps with 1466603 atoms

Performance: 24209.506 tau/day, 280.203 timesteps/s, 410.946 Matom-step/s
99.4% CPU use with 600 MPI tasks x 1 OpenMP threads

MPI task timing breakdown:
Section |  min time  |  avg time  |  max time  |%varavg| %total
---------------------------------------------------------------
Pair    | 0.98811    | 1.1784     | 1.429      |   9.8 | 33.02
Bond    | 0.0017905  | 0.010005   | 0.023429   |   7.5 |  0.28
Neigh   | 0.4762     | 0.4953     | 0.51497    |   1.4 | 13.88
Comm    | 0.99088    | 1.2762     | 1.6407     |  13.9 | 35.76
Output  | 0.0001163  | 0.0010692  | 0.0018062  |   1.2 |  0.03
Modify  | 0.13447    | 0.15391    | 0.18815    |   2.5 |  4.31
Other   |            | 0.4541     |            |       | 12.72

Nlocal:        2444.34 ave        4068 max        1938 min
Histogram: 393 87 0 0 0 0 0 0 0 120
Nghost:          12513 ave       22261 max        9677 min
Histogram: 480 0 0 0 0 0 0 0 0 120
Neighs:        97611.3 ave      112917 max       85824 min
Histogram: 26 90 125 94 43 46 32 66 63 15

Total # of neighbors = 58566793
Ave neighs/atom = 39.933638
Ave special neighs/atom = 0.083785455
Neighbor list builds = 29
Dangerous builds = 0
Generated 0 of 10 mixed pair_coeff terms from geometric mixing rule
Last active /omp style is angle_style harmonic
Setting up Verlet run ...
  Unit style    : lj
  Current step  : 0
  Time step     : 0.005
Per MPI rank memory allocation (min/avg/max) = 14.49 | 16.62 | 24.23 Mbytes
   Step          Temp          PotEng         KinEng         TotEng         Press          Volume           Lx             Ly             Lz      
         0   0.59424636    -2.4893301      0.89136893    -1.5979612      9.2386757      1180139.5      89.6           89.6           147          
      1000   0.82357667    -1.7828359      1.2353642     -0.54747175     1.3454832      1476938.2      96.557126      96.557126      158.41404    
Loop time of 7.04812 on 600 procs for 1000 steps with 1466603 atoms

Performance: 61292.940 tau/day, 141.882 timesteps/s, 208.084 Matom-step/s
99.3% CPU use with 600 MPI tasks x 1 OpenMP threads

MPI task timing breakdown:
Section |  min time  |  avg time  |  max time  |%varavg| %total
---------------------------------------------------------------
Pair    | 0.91342    | 1.03       | 1.1904     |   5.7 | 14.61
Bond    | 0.0028684  | 0.017306   | 0.039842   |   9.6 |  0.25
Neigh   | 3.4899     | 3.6212     | 3.7439     |   3.6 | 51.38
Comm    | 1.1598     | 1.4878     | 1.8953     |  13.8 | 21.11
Output  | 0.00012803 | 0.00014705 | 0.00019218 |   0.0 |  0.00
Modify  | 0.61552    | 0.83807    | 1.1477     |  12.5 | 11.89
Other   |            | 0.05363    |            |       |  0.76

Nlocal:        2444.34 ave        4053 max        1976 min
Histogram: 478 2 0 0 0 0 0 0 0 120
Nghost:        11188.6 ave       20084 max        8701 min
Histogram: 480 0 0 0 0 0 0 0 0 120
Neighs:        76847.2 ave       86435 max       70164 min
Histogram: 20 167 145 51 27 21 6 41 84 38

Total # of neighbors = 46108324
Ave neighs/atom = 31.438858
Ave special neighs/atom = 0.083785455
Neighbor list builds = 220
Dangerous builds = 0
Generated 0 of 10 mixed pair_coeff terms from geometric mixing rule
Last active /omp style is angle_style harmonic
Setting up Verlet run ...
  Unit style    : lj
  Current step  : 1000
  Time step     : 0.005
Per MPI rank memory allocation (min/avg/max) = 14.5 | 16.63 | 24.24 Mbytes
   Step          Temp          PotEng         KinEng         TotEng         Press          Volume           Lx             Ly             Lz      
      1000   0.82357667    -1.7828359      1.2353642     -0.54747175     1.3454832      1476938.2      96.557126      96.557126      158.41404    
    100000   0.89336384    -1.320341       1.3400449      0.019703878    1.0042298      1662053.4      100.43349      100.43349      164.77369    
    200000   0.9011341     -1.2871157      1.3517002      0.064584534    0.99731475     1673305.1      100.65962      100.65962      165.14468    
    300000   0.90637393    -1.2701892      1.35956        0.08937075     0.99861907     1678774.8      100.76918      100.76918      165.32443    
    400000   0.91018006    -1.2592641      1.3652692      0.10600506     0.99525179     1682581.3      100.84528      100.84528      165.44929    
    500000   0.91228106    -1.2486865      1.3684206      0.11973416     0.9898752      1686062        100.91477      100.91477      165.56329    
    600000   0.91507896    -1.2451891      1.3726175      0.12742838     1.0018473      1687211.5      100.9377       100.9377       165.60091    
    700000   0.91513448    -1.2426811      1.3727008      0.13001965     0.9893954      1688350.8      100.96041      100.96041      165.63818    
    800000   0.91534597    -1.2371431      1.373018       0.13587492     0.99364957     1690268.6      100.99863      100.99863      165.70087    
    900000   0.91573473    -1.2347587      1.3736012      0.13884241     0.99883013     1690538.8      101.00401      101.00401      165.7097     
   1000000   0.9165525     -1.2338404      1.3748278      0.14098741     1.0093443      1690597.2      101.00517      101.00517      165.71161    
   1001001   0.91739276    -1.2355765      1.3760882      0.1405117      0.99866616     1690340.3      101.00005      101.00005      165.70321    
Loop time of 5492.39 on 600 procs for 1000001 steps with 1466603 atoms

Performance: 78654.323 tau/day, 182.070 timesteps/s, 267.025 Matom-step/s
99.4% CPU use with 600 MPI tasks x 1 OpenMP threads

MPI task timing breakdown:
Section |  min time  |  avg time  |  max time  |%varavg| %total
---------------------------------------------------------------
Pair    | 782.54     | 843.7      | 1035.8     | 187.8 | 15.36
Bond    | 2.781      | 14.94      | 103.1      | 586.0 |  0.27
Neigh   | 2527.3     | 2618.3     | 2714.4     |  96.6 | 47.67
Comm    | 987.2      | 1263.1     | 1604       | 398.2 | 23.00
Output  | 0.11189    | 0.33351    | 0.6114     |  27.1 |  0.01
Modify  | 476.4      | 700.68     | 957.03     | 465.5 | 12.76
Other   |            | 51.36      |            |       |  0.94

Nlocal:        2444.34 ave        4008 max        1984 min
Histogram: 440 40 0 0 0 0 0 0 0 120
Nghost:        10484.6 ave       18756 max        8192 min
Histogram: 455 25 0 0 0 0 0 0 0 120
Neighs:        67580.9 ave       88939 max       63000 min
Histogram: 260 234 27 32 6 1 0 3 16 21

Total # of neighbors = 40548563
Ave neighs/atom = 27.647948
Ave special neighs/atom = 0.083785455
Neighbor list builds = 175173
Dangerous builds = 0
System init for write_restart ...
Generated 0 of 10 mixed pair_coeff terms from geometric mixing rule
Last active /omp style is angle_style harmonic
System init for write_data ...
Generated 0 of 10 mixed pair_coeff terms from geometric mixing rule
Last active /omp style is angle_style harmonic
WARNING: Not all mixed pair coeffs generated from mixing. Use write_data with 'pair ij' option to store all pair coeffs. (src/write_data.cpp:364)
Total wall time: 1:31:57
======================================
Running post-processing...
======================================
Generating convergence plot...
Plot saved to ./output_plots/convergence_plots/slab_support_tall_angle_7_1.0_1.0_1000001_convergence.png
Generating stress profiles...
No stress data found for slab_support_tall_angle_7_1.0_1.0_1000001, skipping stress plots
No volume data found for slab_support_tall_angle_7_1.0_1.0_1000001, skipping volume fraction plots
Generating piston plots...
Error: Piston position file not found: ./output_files/piston_data/piston_position_slab_support_tall_angle_7_1.0_1.0_1000001.dat
Generating computational efficiency plot...
Found data file: ./data_files/slab_support_tall_angle_7.data
Mobile atoms: 1234535
Tracking info written to /jet/home/dpollard/Documents/lammps_work/tracking.txt
Saved /jet/home/dpollard/Documents/lammps_work/time_vs_atoms.png
Saved /jet/home/dpollard/Documents/lammps_work/time_vs_timesteps.png
======================================
Done! Results are in: /jet/home/dpollard/Documents/lammps_runs/slab_with_support_slab_support_tall_angle_7_1.0_1.0_20260210_034158
======================================
