======================================
Working directory: /jet/home/dpollard/Documents/lammps_runs/slab_with_support_slab_support_tall_angle_8_1.0_1.0_20260210_220237
Trajectory directory (scratch): /ocean/projects/chm250028p/dpollard/lammps_trajectories/slab_with_support_slab_support_tall_angle_8_1.0_1.0_20260210_220237
======================================
Running LAMMPS in slab_with_support with:
  dataname=slab_support_tall_angle_8
  epsSS=1.0, epsSP=1.0
  nsteps=10000000, oldsteps=0, totsteps=10000000
SLURM tasks per node: 120
SLURM CPUs per task: 1
SLURM_GPUS_ON_NODE: 
GPUs allocated: 
Running CPU-only with 600 tasks
LAMMPS (22 Jul 2025)
OMP_NUM_THREADS environment is not set. Defaulting to 1 thread.
  using 1 OpenMP thread(s) per MPI task
using multi-threaded neighbor list subroutines
Reading data file ...
  orthogonal box = (0 0 0) to (66 66 113.4)
  5 by 8 by 15 MPI processor grid
  reading atoms ...
  722171 atoms
  scanning bonds ...
  3 = max bonds/atom
  scanning angles ...
  6 = max angles/atom
  orthogonal box = (0 0 0) to (66 66 113.4)
  5 by 8 by 15 MPI processor grid
  reading bonds ...
  115200 bonds
  reading angles ...
  169196 angles
Finding 1-2 1-3 1-4 neighbors ...
  special bond factors lj:    0        0        0       
  special bond factors coul:  0        0        0       
     4 = max # of 1-2 neighbors
     4 = max # of 1-3 neighbors
     8 = max # of 1-4 neighbors
    12 = max # of special neighbors
  special bonds CPU = 0.136 seconds
  read_data CPU = 6.793 seconds
>>> is_restart = 0
>>> Previous    # of timesteps: 0
>>> Current     # of timesteps: 10000000
>>> Cumulative  # of timesteps: 10000000
101759 atoms in group polymer
493970 atoms in group solvent
63221 atoms in group support
63221 atoms in group piston
595729 atoms in group mobile
228201 atoms in group polymer_and_support
Finding 1-2 1-3 1-4 neighbors ...
  special bond factors lj:    0        1        1       
  special bond factors coul:  0        1        1       
     4 = max # of 1-2 neighbors
    12 = max # of special neighbors
  special bonds CPU = 0.044 seconds
Generated 0 of 10 mixed pair_coeff terms from geometric mixing rule
Last active /omp style is angle_style harmonic
Neighbor list info ...
  update: every = 1 steps, delay = 0 steps, check = yes
  max neighbors/atom: 2000, page size: 100000
  master list distance cutoff = 2.8
  ghost atom cutoff = 5
  binsize = 1.4, bins = 48 48 81
  1 neighbor lists, perpetual/occasional/extra = 1 0 0
  (1) pair lj/cut/omp, perpetual
      attributes: half, newton on, omp
      pair build: half/bin/newton/omp
      stencil: half/bin/3d
      bin: standard
Setting up cg style minimization ...
  Unit style    : lj
  Current step  : 0
Per MPI rank memory allocation (min/avg/max) = 12.76 | 14.29 | 22.79 Mbytes
   Step          Temp          E_pair         E_mol          TotEng         Press     
         0   0              2.9994606e+19  1617.4032      2.9994606e+19  1.7540512e+20
      1211   0             -4.4748404      10.327951      5.8531103      25.202171    
Loop time of 8.53821 on 600 procs for 1211 steps with 722171 atoms

99.3% CPU use with 600 MPI tasks x 1 OpenMP threads

Minimization stats:
  Stopping criterion = energy tolerance
  Energy initial, next-to-last, final = 
    2.99946057859474e+19   5.85352123287471   5.85311030883071
  Force two-norm initial, final = 4.1572836e+28 1701.8509
  Force max component initial, final = 1.9995556e+28 548.07848
  Final line search alpha, max atom move = 0.0002705787 0.14829836
  Iterations, force evaluations = 1211 1314

MPI task timing breakdown:
Section |  min time  |  avg time  |  max time  |%varavg| %total
---------------------------------------------------------------
Pair    | 0.96589    | 1.5833     | 3.3773     |  34.7 | 18.54
Bond    | 0.0031446  | 0.035083   | 0.087124   |  16.2 |  0.41
Neigh   | 3.3889     | 3.5754     | 3.6902     |   4.0 | 41.87
Comm    | 0.8843     | 1.8379     | 3.0267     |  29.6 | 21.53
Output  | 0          | 0          | 0          |   0.0 |  0.00
Modify  | 0.011208   | 0.021872   | 0.047295   |   4.6 |  0.26
Other   |            | 1.485      |            |       | 17.39

Nlocal:        1203.62 ave        2621 max         800 min
Histogram: 200 320 0 0 0 0 0 0 13 67
Nghost:         9407.9 ave       18889 max        6677 min
Histogram: 196 316 8 0 0 0 0 0 4 76
Neighs:        55665.7 ave       75178 max       35054 min
Histogram: 20 46 70 70 80 89 80 51 64 30

Total # of neighbors = 33399411
Ave neighs/atom = 46.248618
Ave special neighs/atom = 0.31903801
Neighbor list builds = 269
Dangerous builds = 12
Generated 0 of 10 mixed pair_coeff terms from geometric mixing rule
Last active /omp style is angle_style harmonic
Setting up Verlet run ...
  Unit style    : lj
  Current step  : 0
  Time step     : 0.001
Per MPI rank memory allocation (min/avg/max) = 11.63 | 13.03 | 20.65 Mbytes
   Step          Temp          PotEng         KinEng         TotEng         Press          Volume           Lx             Ly             Lz      
         0   0.08249138     5.8531103      0.1237369      5.9768472      25.322771      493970.4       66             66             113.4        
      1000   0.6442644      6.29722        0.96639527     7.2636153      28.872449      493970.4       66             66             113.4        
Loop time of 2.27126 on 600 procs for 1000 steps with 722171 atoms

Performance: 38040.508 tau/day, 440.284 timesteps/s, 317.960 Matom-step/s
99.4% CPU use with 600 MPI tasks x 1 OpenMP threads

MPI task timing breakdown:
Section |  min time  |  avg time  |  max time  |%varavg| %total
---------------------------------------------------------------
Pair    | 0.43826    | 0.68413    | 0.88699    |  12.6 | 30.12
Bond    | 0.0016432  | 0.016318   | 0.037261   |  10.0 |  0.72
Neigh   | 0.28734    | 0.30178    | 0.30969    |   1.0 | 13.29
Comm    | 0.65337    | 0.84452    | 1.1929     |  12.7 | 37.18
Output  | 9.6991e-05 | 0.00051211 | 0.00099578 |   0.0 |  0.02
Modify  | 0.05938    | 0.07697    | 0.10033    |   2.6 |  3.39
Other   |            | 0.347      |            |       | 15.28

Nlocal:        1203.62 ave        2609 max         835 min
Histogram: 257 263 0 0 0 0 0 0 3 77
Nghost:        9405.89 ave       18729 max        6894 min
Histogram: 237 283 0 0 0 0 0 0 0 80
Neighs:        55447.4 ave       67755 max       38285 min
Histogram: 9 32 49 50 66 73 98 109 88 26

Total # of neighbors = 33268458
Ave neighs/atom = 46.067286
Ave special neighs/atom = 0.31903801
Neighbor list builds = 23
Dangerous builds = 0
Generated 0 of 10 mixed pair_coeff terms from geometric mixing rule
Last active /omp style is angle_style harmonic
Setting up Verlet run ...
  Unit style    : lj
  Current step  : 0
  Time step     : 0.005
Per MPI rank memory allocation (min/avg/max) = 11.64 | 13.03 | 20.8 Mbytes
   Step          Temp          PotEng         KinEng         TotEng         Press          Volume           Lx             Ly             Lz      
         0   0.6442644      6.29722        0.96639527     7.2636153      28.872449      493970.4       66             66             113.4        
      1000   0.79703068     5.7543642      1.1955444      6.9499086      1.625183       702127.53      74.207698      74.207698      127.50232    
Loop time of 4.803 on 600 procs for 1000 steps with 722171 atoms

Performance: 89943.725 tau/day, 208.203 timesteps/s, 150.358 Matom-step/s
99.3% CPU use with 600 MPI tasks x 1 OpenMP threads

MPI task timing breakdown:
Section |  min time  |  avg time  |  max time  |%varavg| %total
---------------------------------------------------------------
Pair    | 0.44774    | 0.54254    | 0.61025    |   4.7 | 11.30
Bond    | 0.0026088  | 0.026039   | 0.057981   |  11.2 |  0.54
Neigh   | 2.6305     | 2.7531     | 2.8259     |   3.5 | 57.32
Comm    | 0.71762    | 0.93761    | 1.2996     |  13.7 | 19.52
Output  | 0.00011354 | 0.00012994 | 0.0001735  |   0.0 |  0.00
Modify  | 0.30999    | 0.50147    | 0.7171     |  11.6 | 10.44
Other   |            | 0.04206    |            |       |  0.88

Nlocal:        1203.62 ave        2626 max         927 min
Histogram: 520 0 0 0 0 0 0 0 1 79
Nghost:        7789.62 ave       15984 max        6147 min
Histogram: 520 0 0 0 0 0 0 0 0 80
Neighs:        37563.5 ave       42139 max       31900 min
Histogram: 1 17 80 52 74 98 118 100 52 8

Total # of neighbors = 22538100
Ave neighs/atom = 31.208813
Ave special neighs/atom = 0.31903801
Neighbor list builds = 232
Dangerous builds = 0
Generated 0 of 10 mixed pair_coeff terms from geometric mixing rule
Last active /omp style is angle_style harmonic
Setting up Verlet run ...
  Unit style    : lj
  Current step  : 1000
  Time step     : 0.005
Per MPI rank memory allocation (min/avg/max) = 11.64 | 13.04 | 20.81 Mbytes
   Step          Temp          PotEng         KinEng         TotEng         Press          Volume           Lx             Ly             Lz      
      1000   0.79703068     5.7543642      1.1955444      6.9499086      1.625183       702127.53      74.207698      74.207698      127.50232    
    500000   0.9024255      6.2073129      1.3536364      7.5609493      0.97430902     782267.86      76.929951      76.929951      132.17964    
   1000000   0.90798236     6.2207002      1.3619717      7.5826718      0.99735017     784319.88      76.997159      76.997159      132.29512    
   1500000   0.90636948     6.2282185      1.3595523      7.5877708      1.0099738      785259.11      77.027882      77.027882      132.34791    
   2000000   0.90771582     6.2280527      1.3615718      7.5896246      1.0057849      785483.2       77.035208      77.035208      132.36049    
   2500000   0.90931284     6.2269396      1.3639674      7.5909069      1.0072109      785866.7       77.047743      77.047743      132.38203    
   3000000   0.90876757     6.2337612      1.3631495      7.5969107      0.99351748     786567.4       77.070636      77.070636      132.42137    
   3500000   0.90847572     6.2284916      1.3627117      7.5912033      0.99451896     786225.08      77.059453      77.059453      132.40215    
   4000000   0.90791104     6.230496       1.3618647      7.5923606      0.98786543     786667.59      77.073908      77.073908      132.42699    
   4500000   0.9093606      6.2322142      1.364039       7.5962532      0.98708753     786965.27      77.083628      77.083628      132.44369    
   5000000   0.91014954     6.2302372      1.3652224      7.5954596      0.98449258     786431.45      77.066195      77.066195      132.41374    
   5500000   0.90835095     6.2323763      1.3625245      7.5949009      1.0048501      786353.82      77.063659      77.063659      132.40938    
   6000000   0.90881511     6.2315876      1.3632208      7.5948084      1.0063521      786547.85      77.069997      77.069997      132.42027    
   6500000   0.9082472      6.2280304      1.3623689      7.5903993      1.0014199      786240.89      77.05997       77.05997       132.40304    
   7000000   0.90940206     6.2294241      1.3641012      7.5935253      1.0017986      786504.5       77.068581      77.068581      132.41784    
   7500000   0.90913696     6.2326441      1.3637036      7.5963477      1.0095555      786779.39      77.077559      77.077559      132.43326    
   8000000   0.90860154     6.2338442      1.3629004      7.5967447      1.0080903      786787.62      77.077828      77.077828      132.43372    
   8500000   0.90854873     6.2314141      1.3628212      7.5942353      1.0020542      786593.15      77.071477      77.071477      132.42281    
   9000000   0.90953289     6.230398       1.3642974      7.5946955      1.0109636      786131.72      77.056403      77.056403      132.39691    
   9500000   0.90831718     6.2315513      1.3624739      7.5940251      1.0066478      786661.49      77.073709      77.073709      132.42665    
  10000000   0.90952202     6.2301597      1.3642811      7.5944409      0.99290485     786402.63      77.065254      77.065254      132.41212    
  10001000   0.9096755      6.2331796      1.3645114      7.5976909      0.99349526     786983.74      77.084232      77.084232      132.44473    
Loop time of 34750.4 on 600 procs for 10000000 steps with 722171 atoms

Performance: 124315.009 tau/day, 287.766 timesteps/s, 207.816 Matom-step/s
99.4% CPU use with 600 MPI tasks x 1 OpenMP threads

MPI task timing breakdown:
Section |  min time  |  avg time  |  max time  |%varavg| %total
---------------------------------------------------------------
Pair    | 3654.1     | 4290       | 5557       | 948.8 | 12.35
Bond    | 24.584     | 236.48     | 867.55     |1837.1 |  0.68
Neigh   | 16434      | 17369      | 17954      | 300.3 | 49.98
Comm    | 6254.6     | 8092       | 10905      |1228.8 | 23.29
Output  | 0.39402    | 1.1307     | 2.0961     |  62.3 |  0.00
Modify  | 2724.5     | 4372.1     | 6713.8     |1543.9 | 12.58
Other   |            | 389.6      |            |       |  1.12

Nlocal:        1203.62 ave        2578 max         899 min
Histogram: 380 140 0 0 0 0 0 0 0 80
Nghost:        7334.62 ave       15167 max        5720 min
Histogram: 419 101 0 0 0 0 0 0 0 80
Neighs:          33888 ave       46168 max       27792 min
Histogram: 86 267 62 12 19 15 14 14 67 44

Total # of neighbors = 20332799
Ave neighs/atom = 28.155103
Ave special neighs/atom = 0.31903801
Neighbor list builds = 1721925
Dangerous builds = 0
System init for write_restart ...
Generated 0 of 10 mixed pair_coeff terms from geometric mixing rule
Last active /omp style is angle_style harmonic
System init for write_data ...
Generated 0 of 10 mixed pair_coeff terms from geometric mixing rule
Last active /omp style is angle_style harmonic
WARNING: Not all mixed pair coeffs generated from mixing. Use write_data with 'pair ij' option to store all pair coeffs. (src/write_data.cpp:364)
Total wall time: 9:39:35
======================================
Running post-processing...
======================================
Generating convergence plot...
Plot saved to ./output_plots/convergence_plots/slab_support_tall_angle_8_1.0_1.0_10000000_convergence.png
Generating stress profiles...
No stress data found for slab_support_tall_angle_8_1.0_1.0_10000000, skipping stress plots
No volume data found for slab_support_tall_angle_8_1.0_1.0_10000000, skipping volume fraction plots
Generating piston plots...
Error: Piston position file not found: ./output_files/piston_data/piston_position_slab_support_tall_angle_8_1.0_1.0_10000000.dat
Generating computational efficiency plot...
Found data file: ./data_files/slab_support_tall_angle_8.data
Mobile atoms: 595725
Tracking info written to /jet/home/dpollard/Documents/lammps_work/tracking.txt
Saved /jet/home/dpollard/Documents/lammps_work/time_vs_atoms.png
Saved /jet/home/dpollard/Documents/lammps_work/time_vs_timesteps.png
======================================
Done! Results are in: /jet/home/dpollard/Documents/lammps_runs/slab_with_support_slab_support_tall_angle_8_1.0_1.0_20260210_220237
======================================
