======================================
Working directory: /jet/home/dpollard/Documents/lammps_runs/slab_with_support_slab_support_tall_angle_5_1.0_1.0_20260206_143757
Trajectory directory (scratch): /ocean/projects/chm250028p/dpollard/lammps_trajectories/slab_with_support_slab_support_tall_angle_5_1.0_1.0_20260206_143757
======================================
Running LAMMPS in slab_with_support with:
  dataname=slab_support_tall_angle_5
  epsSS=1.0, epsSP=1.0
  nsteps=1000000, oldsteps=0, totsteps=1000000
SLURM tasks per node: 120
SLURM CPUs per task: 1
SLURM_GPUS_ON_NODE: 
GPUs allocated: 
Running CPU-only with 600 tasks
LAMMPS (22 Jul 2025)
OMP_NUM_THREADS environment is not set. Defaulting to 1 thread.
  using 1 OpenMP thread(s) per MPI task
using multi-threaded neighbor list subroutines
Reading data file ...
  orthogonal box = (0 0 0) to (104.4 104.4 160)
  6 by 10 by 10 MPI processor grid
  reading atoms ...
  2133138 atoms
  scanning bonds ...
  3 = max bonds/atom
  scanning angles ...
  6 = max angles/atom
  orthogonal box = (0 0 0) to (104.4 104.4 160)
  6 by 10 by 10 MPI processor grid
  reading bonds ...
  82944 bonds
  reading angles ...
  121532 angles
Finding 1-2 1-3 1-4 neighbors ...
  special bond factors lj:    0        0        0       
  special bond factors coul:  0        0        0       
     4 = max # of 1-2 neighbors
     4 = max # of 1-3 neighbors
     8 = max # of 1-4 neighbors
    12 = max # of special neighbors
  special bonds CPU = 0.178 seconds
  read_data CPU = 7.878 seconds
>>> is_restart = 0
>>> Previous    # of timesteps: 0
>>> Current     # of timesteps: 1000000
>>> Cumulative  # of timesteps: 1000000
73349 atoms in group polymer
1743897 atoms in group solvent
157946 atoms in group support
157946 atoms in group piston
1817246 atoms in group mobile
389241 atoms in group polymer_and_support
Finding 1-2 1-3 1-4 neighbors ...
  special bond factors lj:    0        1        1       
  special bond factors coul:  0        1        1       
     4 = max # of 1-2 neighbors
    12 = max # of special neighbors
  special bonds CPU = 0.068 seconds
Generated 0 of 10 mixed pair_coeff terms from geometric mixing rule
Last active /omp style is angle_style harmonic
Neighbor list info ...
  update: every = 1 steps, delay = 0 steps, check = yes
  max neighbors/atom: 2000, page size: 100000
  master list distance cutoff = 2.8
  ghost atom cutoff = 5
  binsize = 1.4, bins = 75 75 115
  1 neighbor lists, perpetual/occasional/extra = 1 0 0
  (1) pair lj/cut/omp, perpetual
      attributes: half, newton on, omp
      pair build: half/bin/newton/omp
      stencil: half/bin/3d
      bin: standard
Setting up cg style minimization ...
  Unit style    : lj
  Current step  : 0
Per MPI rank memory allocation (min/avg/max) = 18.63 | 20.9 | 29.39 Mbytes
   Step          Temp          E_pair         E_mol          TotEng         Press     
         0   0              4.838296e+22   2.481805       4.838296e+22   2.3672842e+23
WARNING: FENE bond too long: 61 2827 27447 1.9018417 (src/OPENMP/bond_fene_omp.cpp:116)
       536   0             -5.7666135      2.4527395     -3.313874       5.0701584    
Loop time of 8.68842 on 600 procs for 536 steps with 2133138 atoms

99.1% CPU use with 600 MPI tasks x 1 OpenMP threads

Minimization stats:
  Stopping criterion = energy tolerance
  Energy initial, next-to-last, final = 
    4.83829598770408e+22  -3.31363446117757  -3.31387402333668
  Force two-norm initial, final = 4.0778863e+32 3782.8636
  Force max component initial, final = 2.3480605e+32 710.71042
  Final line search alpha, max atom move = 1.180948e-05 0.0083931207
  Iterations, force evaluations = 536 613

MPI task timing breakdown:
Section |  min time  |  avg time  |  max time  |%varavg| %total
---------------------------------------------------------------
Pair    | 1.6015     | 1.8732     | 3.5721     |  14.5 | 21.56
Bond    | 0.0015452  | 0.014027   | 0.038679   |  10.7 |  0.16
Neigh   | 3.606      | 3.7493     | 3.8912     |   3.9 | 43.15
Comm    | 0.77523    | 1.5484     | 2.6653     |  29.9 | 17.82
Output  | 0          | 0          | 0          |   0.0 |  0.00
Modify  | 0.026221   | 0.04962    | 0.093878   |   6.7 |  0.57
Other   |            | 1.454      |            |       | 16.73

Nlocal:        3555.23 ave        5810 max        2842 min
Histogram: 313 167 0 0 0 0 0 0 23 97
Nghost:        14896.1 ave       26235 max       11555 min
Histogram: 480 0 0 0 0 0 0 0 0 120
Neighs:         143527 ave      170741 max      125390 min
Histogram: 53 154 106 46 32 27 26 80 67 9

Total # of neighbors = 86116129
Ave neighs/atom = 40.370632
Ave special neighs/atom = 0.077767121
Neighbor list builds = 153
Dangerous builds = 41
Generated 0 of 10 mixed pair_coeff terms from geometric mixing rule
Last active /omp style is angle_style harmonic
Setting up Verlet run ...
  Unit style    : lj
  Current step  : 0
  Time step     : 0.001
Per MPI rank memory allocation (min/avg/max) = 17.51 | 19.54 | 27.14 Mbytes
   Step          Temp          PotEng         KinEng         TotEng         Press          Volume           Lx             Ly             Lz      
         0   0.0851912     -3.313874       0.12778674    -3.1860873      5.1743643      1743897.6      104.4          104.4          160          
      1000   0.60944366    -2.7024389      0.91416505    -1.7882738      9.3712392      1743897.6      104.4          104.4          160          
Loop time of 4.6928 on 600 procs for 1000 steps with 2133138 atoms

Performance: 18411.200 tau/day, 213.093 timesteps/s, 454.556 Matom-step/s
99.0% CPU use with 600 MPI tasks x 1 OpenMP threads

MPI task timing breakdown:
Section |  min time  |  avg time  |  max time  |%varavg| %total
---------------------------------------------------------------
Pair    | 1.4626     | 1.729      | 2.1175     |  12.2 | 36.84
Bond    | 0.0018141  | 0.013035   | 0.034588   |  10.4 |  0.28
Neigh   | 0.76074    | 0.78765    | 0.81464    |   1.6 | 16.78
Comm    | 1.1329     | 1.4536     | 1.9303     |  15.1 | 30.98
Output  | 0.00012108 | 0.0014059  | 0.0024301  |   1.4 |  0.03
Modify  | 0.1989     | 0.23047    | 0.29214    |   4.3 |  4.91
Other   |            | 0.4776     |            |       | 10.18

Nlocal:        3555.23 ave        5765 max        2868 min
Histogram: 363 117 0 0 0 0 0 0 2 118
Nghost:          14894 ave       26212 max       11637 min
Histogram: 480 0 0 0 0 0 0 0 0 120
Neighs:         143075 ave      166015 max      127823 min
Histogram: 58 131 115 54 38 30 39 58 58 19

Total # of neighbors = 85844903
Ave neighs/atom = 40.243483
Ave special neighs/atom = 0.077767121
Neighbor list builds = 33
Dangerous builds = 0
Generated 0 of 10 mixed pair_coeff terms from geometric mixing rule
Last active /omp style is angle_style harmonic
Setting up Verlet run ...
  Unit style    : lj
  Current step  : 0
  Time step     : 0.005
Per MPI rank memory allocation (min/avg/max) = 17.51 | 19.54 | 27.14 Mbytes
   Step          Temp          PotEng         KinEng         TotEng         Press          Volume           Lx             Ly             Lz      
         0   0.60944366    -2.7024389      0.91416505    -1.7882738      9.3712392      1743897.6      104.4          104.4          160          
      1000   0.8307151     -2.042371       1.2460721     -0.79629897     1.4451565      2167407.2      112.24672      112.24672      172.02563    
Loop time of 9.52811 on 600 procs for 1000 steps with 2133138 atoms

Performance: 45339.504 tau/day, 104.953 timesteps/s, 223.878 Matom-step/s
99.3% CPU use with 600 MPI tasks x 1 OpenMP threads

MPI task timing breakdown:
Section |  min time  |  avg time  |  max time  |%varavg| %total
---------------------------------------------------------------
Pair    | 1.3492     | 1.516      | 1.713      |   7.1 | 15.91
Bond    | 0.0030319  | 0.022433   | 0.057478   |  12.8 |  0.24
Neigh   | 4.9618     | 5.1496     | 5.3194     |   4.1 | 54.05
Comm    | 1.4601     | 1.8713     | 2.4108     |  15.9 | 19.64
Output  | 0.00012652 | 0.00015237 | 0.00018628 |   0.0 |  0.00
Modify  | 0.62748    | 0.8974     | 1.3145     |  15.3 |  9.42
Other   |            | 0.07128    |            |       |  0.75

Nlocal:        3555.23 ave        5773 max        2904 min
Histogram: 472 8 0 0 0 0 0 0 0 120
Nghost:        13412.3 ave       23715 max       10496 min
Histogram: 480 0 0 0 0 0 0 0 0 120
Neighs:         113392 ave      126997 max      104297 min
Histogram: 31 164 150 54 11 14 11 54 87 24

Total # of neighbors = 68034907
Ave neighs/atom = 31.894283
Ave special neighs/atom = 0.077767121
Neighbor list builds = 227
Dangerous builds = 0
Generated 0 of 10 mixed pair_coeff terms from geometric mixing rule
Last active /omp style is angle_style harmonic
Setting up Verlet run ...
  Unit style    : lj
  Current step  : 1000
  Time step     : 0.005
Per MPI rank memory allocation (min/avg/max) = 17.52 | 19.55 | 27.14 Mbytes
   Step          Temp          PotEng         KinEng         TotEng         Press          Volume           Lx             Ly             Lz      
      1000   0.8307151     -2.042371       1.2460721     -0.79629897     1.4451565      2167407.2      112.24672      112.24672      172.02563    
    100000   0.89861505    -1.5389215      1.3479219     -0.19099951     0.99761965     2451123.2      116.94506      116.94506      179.22615    
    200000   0.90787964    -1.5136892      1.3618188     -0.15187039     0.99243398     2463631.8      117.14365      117.14365      179.53051    
    300000   0.9135531     -1.4996633      1.370329      -0.12933426     0.99975038     2469937.5      117.24351      117.24351      179.68355    
    400000   0.91610953    -1.489333       1.3741636     -0.11516931     0.99865451     2475146.8      117.32588      117.32588      179.80978    
    500000   0.9185466     -1.4825754      1.3778193     -0.10475614     0.99872006     2478115.6      117.37277      117.37277      179.88164    
    600000   0.92023751    -1.4782616      1.3803556     -0.097906036    0.99780137     2480395.9      117.40876      117.40876      179.9368     
    700000   0.91948138    -1.475835       1.3792214     -0.096613602    0.99977156     2481599.9      117.42775      117.42775      179.96591    
    800000   0.92098801    -1.4735347      1.3814814     -0.092053342    0.99908023     2482119.8      117.43596      117.43596      179.97848    
    900000   0.92134007    -1.4736281      1.3820095     -0.091618662    0.99633321     2483074        117.451        117.451        180.00154    
