======================================
Working directory: /jet/home/dpollard/Documents/lammps_runs/slab_with_support_slab_support_5beads_tall_3_1.0_1.4_20260202_183549
Trajectory directory (scratch): /ocean/projects/chm250028p/dpollard/lammps_trajectories/slab_with_support_slab_support_5beads_tall_3_1.0_1.4_20260202_183549
======================================
Running LAMMPS in slab_with_support with:
  dataname=slab_support_5beads_tall_3
  epsSS=1.0, epsSP=1.4
  nsteps=200000, oldsteps=0, totsteps=200000
SLURM tasks per node: 120
SLURM CPUs per task: 1
SLURM_GPUS_ON_NODE: 
GPUs allocated: 
Running CPU-only with 480 tasks
LAMMPS (22 Jul 2025)
OMP_NUM_THREADS environment is not set. Defaulting to 1 thread.
  using 1 OpenMP thread(s) per MPI task
using multi-threaded neighbor list subroutines
Reading data file ...
  orthogonal box = (0 0 0) to (69.6 69.6 100.8)
  6 by 8 by 10 MPI processor grid
  reading atoms ...
  758308 atoms
  scanning bonds ...
  3 = max bonds/atom
  orthogonal box = (0 0 0) to (69.6 69.6 100.8)
  6 by 8 by 10 MPI processor grid
  reading bonds ...
  147456 bonds
Finding 1-2 1-3 1-4 neighbors ...
  special bond factors lj:    0        0        0       
  special bond factors coul:  0        0        0       
     4 = max # of 1-2 neighbors
     4 = max # of 1-3 neighbors
     8 = max # of 1-4 neighbors
    12 = max # of special neighbors
  special bonds CPU = 0.120 seconds
  read_data CPU = 5.999 seconds
>>> is_restart = 0
>>> Previous    # of timesteps: 0
>>> Current     # of timesteps: 200000
>>> Cumulative  # of timesteps: 200000
130121 atoms in group polymer
488291 atoms in group solvent
69948 atoms in group support
69948 atoms in group piston
618412 atoms in group mobile
270017 atoms in group polymer_and_support
Finding 1-2 1-3 1-4 neighbors ...
  special bond factors lj:    0        1        1       
  special bond factors coul:  0        1        1       
     4 = max # of 1-2 neighbors
    12 = max # of special neighbors
  special bonds CPU = 0.018 seconds
Generated 0 of 10 mixed pair_coeff terms from geometric mixing rule
Last active /omp style is bond_style fene/omp
Neighbor list info ...
  update: every = 1 steps, delay = 0 steps, check = yes
  max neighbors/atom: 2000, page size: 100000
  master list distance cutoff = 2.8
  ghost atom cutoff = 5
  binsize = 1.4, bins = 50 50 72
  1 neighbor lists, perpetual/occasional/extra = 1 0 0
  (1) pair lj/cut/omp, perpetual
      attributes: half, newton on, omp
      pair build: half/bin/newton/omp
      stencil: half/bin/3d
      bin: standard
Setting up cg style minimization ...
  Unit style    : lj
  Current step  : 0
Per MPI rank memory allocation (min/avg/max) = 11.38 | 13.36 | 20.36 Mbytes
   Step          Temp          E_pair         E_mol          TotEng         Press     
         0   0              4.2456282e+19  17785.103      4.2456282e+19  2.6373549e+20
      1632   0             -3.2023578      12.144701      8.942343       47.567437    
Loop time of 11.5816 on 480 procs for 1632 steps with 758308 atoms

99.3% CPU use with 480 MPI tasks x 1 OpenMP threads

Minimization stats:
  Stopping criterion = energy tolerance
  Energy initial, next-to-last, final = 
    4.24562822224367e+19   8.94303101585506   8.94234295031958
  Force two-norm initial, final = 4.1841555e+28 2487.8692
  Force max component initial, final = 1.8345142e+28 657.44881
  Final line search alpha, max atom move = 6.5754858e-05 0.043230453
  Iterations, force evaluations = 1632 1694

MPI task timing breakdown:
Section |  min time  |  avg time  |  max time  |%varavg| %total
---------------------------------------------------------------
Pair    | 1.509      | 2.8013     | 5.2628     |  68.1 | 24.19
Bond    | 0.001324   | 0.023333   | 0.071784   |  17.1 |  0.20
Neigh   | 3.6897     | 3.8768     | 4.0725     |   4.5 | 33.47
Comm    | 1.8347     | 3.1808     | 4.4038     |  41.3 | 27.46
Output  | 0          | 0          | 0          |   0.0 |  0.00
Modify  | 0.01598    | 0.033097   | 0.070957   |   6.4 |  0.29
Other   |            | 1.666      |            |       | 14.39

Nlocal:        1579.81 ave        2917 max         993 min
Histogram: 102 119 155 8 0 0 0 16 56 24
Nghost:        11034.6 ave       20096 max        7082 min
Histogram: 102 141 141 0 0 0 0 2 59 35
Neighs:        76654.3 ave      113093 max       44196 min
Histogram: 57 51 59 38 41 46 64 45 52 27

Total # of neighbors = 36794079
Ave neighs/atom = 48.521286
Ave special neighs/atom = 0.38890794
Neighbor list builds = 294
Dangerous builds = 13
Generated 0 of 10 mixed pair_coeff terms from geometric mixing rule
Last active /omp style is bond_style fene/omp
Setting up Verlet run ...
  Unit style    : lj
  Current step  : 0
  Time step     : 0.001
Per MPI rank memory allocation (min/avg/max) = 10.26 | 12.02 | 18.11 Mbytes
   Step          Temp          PotEng         KinEng         TotEng         Press          Volume           Lx             Ly             Lz      
         0   0.081551535    8.942343       0.12232714     9.0646701      47.694085      488291.33      69.6           69.6           100.8        
      1000   0.81083296     8.7783106      1.2162478      9.9945584      45.519352      488291.33      69.6           69.6           100.8        
Loop time of 2.87594 on 480 procs for 1000 steps with 758308 atoms

Performance: 30042.391 tau/day, 347.713 timesteps/s, 263.673 Matom-step/s
99.5% CPU use with 480 MPI tasks x 1 OpenMP threads

MPI task timing breakdown:
Section |  min time  |  avg time  |  max time  |%varavg| %total
---------------------------------------------------------------
Pair    | 0.52572    | 0.93374    | 1.2619     |  20.2 | 32.47
Bond    | 0.00059583 | 0.0047     | 0.011818   |   6.1 |  0.16
Neigh   | 0.3335     | 0.34753    | 0.35992    |   1.2 | 12.08
Comm    | 0.84517    | 1.0825     | 1.575      |  17.2 | 37.64
Output  | 0.00010602 | 0.0010815  | 0.0019006  |   1.1 |  0.04
Modify  | 0.071362   | 0.098646   | 0.12585    |   3.6 |  3.43
Other   |            | 0.4078     |            |       | 14.18

Nlocal:        1579.81 ave        2829 max        1013 min
Histogram: 74 180 130 0 0 0 0 0 50 46
Nghost:        11035.3 ave       19504 max        7376 min
Histogram: 91 259 34 0 0 0 0 0 15 81
Neighs:        76139.6 ave       93322 max       46049 min
Histogram: 9 27 34 58 25 28 50 72 99 78

Total # of neighbors = 36547031
Ave neighs/atom = 48.195497
Ave special neighs/atom = 0.38890794
Neighbor list builds = 26
Dangerous builds = 0
Generated 0 of 10 mixed pair_coeff terms from geometric mixing rule
Last active /omp style is bond_style fene/omp
Setting up Verlet run ...
  Unit style    : lj
  Current step  : 0
  Time step     : 0.005
Per MPI rank memory allocation (min/avg/max) = 10.26 | 12.02 | 18.11 Mbytes
   Step          Temp          PotEng         KinEng         TotEng         Press          Volume           Lx             Ly             Lz      
         0   0.81083296     8.7783106      1.2162478      9.9945584      45.519352      488291.33      69.6           69.6           100.8        
      1000   0.78666307     7.2237109      1.179993       8.4037039      1.6032506      705981.24      78.701068      78.701068      113.98086    
Loop time of 5.18112 on 480 procs for 1000 steps with 758308 atoms

Performance: 83379.604 tau/day, 193.008 timesteps/s, 146.360 Matom-step/s
99.3% CPU use with 480 MPI tasks x 1 OpenMP threads

MPI task timing breakdown:
Section |  min time  |  avg time  |  max time  |%varavg| %total
---------------------------------------------------------------
Pair    | 0.58959    | 0.72924    | 0.8796     |   8.5 | 14.07
Bond    | 0.00099921 | 0.0089716  | 0.030081   |   7.8 |  0.17
Neigh   | 2.6492     | 2.7587     | 2.8646     |   3.5 | 53.25
Comm    | 0.90414    | 1.1241     | 1.5487     |  15.5 | 21.70
Output  | 0.0001286  | 0.00014761 | 0.0002982  |   0.0 |  0.00
Modify  | 0.30617    | 0.52072    | 0.71795    |  16.0 | 10.05
Other   |            | 0.03926    |            |       |  0.76

Nlocal:        1579.81 ave        2839 max        1184 min
Histogram: 276 108 0 0 0 0 0 0 26 70
Nghost:        9110.18 ave       16542 max        6721 min
Histogram: 344 40 0 0 0 0 0 0 0 96
Neighs:        50440.8 ave       59992 max       40962 min
Histogram: 9 41 74 79 71 37 24 62 69 14

Total # of neighbors = 24211598
Ave neighs/atom = 31.928449
Ave special neighs/atom = 0.38890794
Neighbor list builds = 236
Dangerous builds = 0
Generated 0 of 10 mixed pair_coeff terms from geometric mixing rule
Last active /omp style is bond_style fene/omp
Setting up Verlet run ...
  Unit style    : lj
  Current step  : 1000
  Time step     : 0.005
Per MPI rank memory allocation (min/avg/max) = 10.27 | 12.02 | 18.12 Mbytes
   Step          Temp          PotEng         KinEng         TotEng         Press          Volume           Lx             Ly             Lz      
      1000   0.78666307     7.2237109      1.179993       8.4037039      1.6032506      705981.24      78.701068      78.701068      113.98086    
     10000   0.85293625     7.5598539      1.2794027      8.8392566      0.99777402     764198.36      80.807487      80.807487      117.03153    
     20000   0.85791503     7.5725729      1.2868709      8.8594437      1.0078844      766426.47      80.885946      80.885946      117.14516    
     30000   0.8613699      7.5761108      1.2920531      8.8681639      0.97893431     767303.64      80.916792      80.916792      117.18984    
     40000   0.86497256     7.5808347      1.2974571      8.8782918      1.0156554      767627.49      80.928174      80.928174      117.20632    
     50000   0.86577986     7.5800962      1.2986681      8.8787643      0.99282694     767868.04      80.936627      80.936627      117.21856    
     60000   0.86909525     7.5865837      1.3036412      8.8902248      1.0089074      768634.23      80.963538      80.963538      117.25754    
     70000   0.86954157     7.5895951      1.3043106      8.8939057      0.99632618     769272.01      80.985925      80.985925      117.28996    
     80000   0.87284397     7.5918661      1.3092642      8.9011303      0.99782122     769802.03      81.00452       81.00452       117.31689    
     90000   0.87227444     7.5942415      1.3084099      8.9026514      0.98767946     769912.89      81.008409      81.008409      117.32252    
    100000   0.87608734     7.5961049      1.3141293      8.9102341      0.98800651     770402.58      81.025579      81.025579      117.34739    
    110000   0.87624055     7.5984968      1.3143591      8.9128559      0.99096927     770833.8       81.040694      81.040694      117.36928    
    120000   0.87642285     7.6022142      1.3146325      8.9168468      1.0006838      771253.21      81.05539       81.05539       117.39056    
    130000   0.87917008     7.6064221      1.3187534      8.9251755      0.99422568     771639.26      81.068911      81.068911      117.41015    
    140000   0.8792505      7.6063638      1.318874       8.9252378      0.98706899     771780.23      81.073848      81.073848      117.4173     
    150000   0.88170007     7.6033809      1.3225484      8.9259292      1.0130138      771190.78      81.053203      81.053203      117.3874     
    160000   0.88244622     7.6094953      1.3236676      8.9331629      1.0125274      772147.94      81.086722      81.086722      117.43594    
    170000   0.88318148     7.6055884      1.3247705      8.9303589      0.9860318      771949.08      81.07976       81.07976       117.42586    
    180000   0.88366534     7.6067699      1.3254963      8.9322662      1.0008991      772008.52      81.081841      81.081841      117.42887    
    190000   0.88382762     7.6107483      1.3257397      8.936488       0.99446521     772424.34      81.096396      81.096396      117.44995    
    200000   0.88609849     7.6083968      1.329146       8.9375428      0.98584929     772378.85      81.094804      81.094804      117.44765    
    201000   0.88671522     7.6074235      1.3300711      8.9374946      1.0038829      772132.66      81.086187      81.086187      117.43517    
Loop time of 771.154 on 480 procs for 200000 steps with 758308 atoms

Performance: 112039.835 tau/day, 259.351 timesteps/s, 196.668 Matom-step/s
99.4% CPU use with 480 MPI tasks x 1 OpenMP threads

MPI task timing breakdown:
Section |  min time  |  avg time  |  max time  |%varavg| %total
---------------------------------------------------------------
Pair    | 90.552     | 116.95     | 148.27     | 178.4 | 15.17
Bond    | 0.18172    | 1.7645     | 6.152      | 106.2 |  0.23
Neigh   | 325.48     | 340.44     | 357.47     |  43.9 | 44.15
Comm    | 150.19     | 199.43     | 273.94     | 204.1 | 25.86
Output  | 0.05924    | 0.24423    | 0.46419    |  26.4 |  0.03
Modify  | 62.974     | 105.14     | 152.42     | 225.5 | 13.63
Other   |            | 7.192      |            |       |  0.93

Nlocal:        1579.81 ave        2847 max        1131 min
Histogram: 227 156 1 0 0 0 0 0 51 45
Nghost:        8685.66 ave       15873 max        6187 min
Histogram: 240 144 0 0 0 0 0 0 6 90
Neighs:        46525.5 ave       59362 max       35904 min
Histogram: 87 59 35 79 43 9 12 21 89 46

Total # of neighbors = 22332230
Ave neighs/atom = 29.450078
Ave special neighs/atom = 0.38890794
Neighbor list builds = 34037
Dangerous builds = 0
System init for write_restart ...
Generated 0 of 10 mixed pair_coeff terms from geometric mixing rule
Last active /omp style is bond_style fene/omp
System init for write_data ...
Generated 0 of 10 mixed pair_coeff terms from geometric mixing rule
Last active /omp style is bond_style fene/omp
WARNING: Not all mixed pair coeffs generated from mixing. Use write_data with 'pair ij' option to store all pair coeffs. (src/write_data.cpp:364)
Total wall time: 0:13:19
======================================
Running post-processing...
======================================
Generating convergence plot...
Plot saved to ./output_plots/convergence_plots/slab_support_5beads_tall_3_1.0_1.4_200000_convergence.png
Generating stress profiles...
No stress data found for slab_support_5beads_tall_3_1.0_1.4_200000, skipping stress plots
No volume data found for slab_support_5beads_tall_3_1.0_1.4_200000, skipping volume fraction plots
Generating piston plots...
Error: Piston position file not found: ./output_files/piston_data/piston_position_slab_support_5beads_tall_3_1.0_1.4_200000.dat
Generating computational efficiency plot...
Found data file: ./data_files/slab_support_5beads_tall_3.data
Mobile atoms: 618410
Entry 'slab_support_5beads_tall_3_1.0_1.4_200000' already exists in tracking file, skipping.
Tracking info written to /jet/home/dpollard/Documents/lammps_work/tracking.txt
Saved /jet/home/dpollard/Documents/lammps_work/time_vs_atoms.png
Saved /jet/home/dpollard/Documents/lammps_work/time_vs_timesteps.png
======================================
Done! Results are in: /jet/home/dpollard/Documents/lammps_runs/slab_with_support_slab_support_5beads_tall_3_1.0_1.4_20260202_183549
======================================
