======================================
Working directory: /jet/home/dpollard/Documents/lammps_runs/slab_with_support_slab_support_tall_angle_8_1.0_1.0_20260212_021107
Trajectory directory (scratch): /ocean/projects/chm250028p/dpollard/lammps_trajectories/slab_with_support_slab_support_tall_angle_8_1.0_1.0_20260212_021107
======================================
Running LAMMPS in slab_with_support with:
  dataname=slab_support_tall_angle_8
  epsSS=1.0, epsSP=1.0
  nsteps=20000000, oldsteps=0, totsteps=20000000
SLURM tasks per node: 120
SLURM CPUs per task: 1
SLURM_GPUS_ON_NODE: 
GPUs allocated: 
Running CPU-only with 600 tasks
LAMMPS (22 Jul 2025)
OMP_NUM_THREADS environment is not set. Defaulting to 1 thread.
  using 1 OpenMP thread(s) per MPI task
using multi-threaded neighbor list subroutines
Reading data file ...
  orthogonal box = (0 0 0) to (66 66 113.4)
  5 by 8 by 15 MPI processor grid
  reading atoms ...
  722171 atoms
  scanning bonds ...
  3 = max bonds/atom
  scanning angles ...
  6 = max angles/atom
  orthogonal box = (0 0 0) to (66 66 113.4)
  5 by 8 by 15 MPI processor grid
  reading bonds ...
  115200 bonds
  reading angles ...
  169196 angles
Finding 1-2 1-3 1-4 neighbors ...
  special bond factors lj:    0        0        0       
  special bond factors coul:  0        0        0       
     4 = max # of 1-2 neighbors
     4 = max # of 1-3 neighbors
     8 = max # of 1-4 neighbors
    12 = max # of special neighbors
  special bonds CPU = 0.139 seconds
  read_data CPU = 6.911 seconds
>>> is_restart = 0
>>> Previous    # of timesteps: 0
>>> Current     # of timesteps: 20000000
>>> Cumulative  # of timesteps: 20000000
101759 atoms in group polymer
493970 atoms in group solvent
63221 atoms in group support
63221 atoms in group piston
595729 atoms in group mobile
228201 atoms in group polymer_and_support
Finding 1-2 1-3 1-4 neighbors ...
  special bond factors lj:    0        1        1       
  special bond factors coul:  0        1        1       
     4 = max # of 1-2 neighbors
    12 = max # of special neighbors
  special bonds CPU = 0.044 seconds
Generated 0 of 10 mixed pair_coeff terms from geometric mixing rule
Last active /omp style is angle_style harmonic
Neighbor list info ...
  update: every = 1 steps, delay = 0 steps, check = yes
  max neighbors/atom: 2000, page size: 100000
  master list distance cutoff = 2.8
  ghost atom cutoff = 5
  binsize = 1.4, bins = 48 48 81
  1 neighbor lists, perpetual/occasional/extra = 1 0 0
  (1) pair lj/cut/omp, perpetual
      attributes: half, newton on, omp
      pair build: half/bin/newton/omp
      stencil: half/bin/3d
      bin: standard
Setting up cg style minimization ...
  Unit style    : lj
  Current step  : 0
Per MPI rank memory allocation (min/avg/max) = 12.76 | 14.29 | 22.79 Mbytes
   Step          Temp          E_pair         E_mol          TotEng         Press     
         0   0              2.9994606e+19  1617.4032      2.9994606e+19  1.7540512e+20
      1211   0             -4.4748404      10.327951      5.8531103      25.202171    
Loop time of 8.72205 on 600 procs for 1211 steps with 722171 atoms

99.4% CPU use with 600 MPI tasks x 1 OpenMP threads

Minimization stats:
  Stopping criterion = energy tolerance
  Energy initial, next-to-last, final = 
    2.99946057859474e+19   5.85352123287471   5.85311030883071
  Force two-norm initial, final = 4.1572836e+28 1701.8509
  Force max component initial, final = 1.9995556e+28 548.07848
  Final line search alpha, max atom move = 0.0002705787 0.14829836
  Iterations, force evaluations = 1211 1314

MPI task timing breakdown:
Section |  min time  |  avg time  |  max time  |%varavg| %total
---------------------------------------------------------------
Pair    | 0.9634     | 1.5831     | 3.4583     |  34.7 | 18.15
Bond    | 0.003171   | 0.035209   | 0.09781    |  16.3 |  0.40
Neigh   | 3.3295     | 3.5139     | 3.6331     |   4.1 | 40.29
Comm    | 0.98206    | 1.8299     | 3.2129     |  29.0 | 20.98
Output  | 0          | 0          | 0          |   0.0 |  0.00
Modify  | 0.011233   | 0.022006   | 0.045745   |   4.7 |  0.25
Other   |            | 1.738      |            |       | 19.93

Nlocal:        1203.62 ave        2621 max         800 min
Histogram: 200 320 0 0 0 0 0 0 13 67
Nghost:         9407.9 ave       18889 max        6677 min
Histogram: 196 316 8 0 0 0 0 0 4 76
Neighs:        55665.7 ave       75178 max       35054 min
Histogram: 20 46 70 70 80 89 80 51 64 30

Total # of neighbors = 33399411
Ave neighs/atom = 46.248618
Ave special neighs/atom = 0.31903801
Neighbor list builds = 269
Dangerous builds = 12
Generated 0 of 10 mixed pair_coeff terms from geometric mixing rule
Last active /omp style is angle_style harmonic
Setting up Verlet run ...
  Unit style    : lj
  Current step  : 0
  Time step     : 0.001
Per MPI rank memory allocation (min/avg/max) = 11.63 | 13.03 | 20.65 Mbytes
   Step          Temp          PotEng         KinEng         TotEng         Press          Volume           Lx             Ly             Lz      
         0   0.08249138     5.8531103      0.1237369      5.9768472      25.322771      493970.4       66             66             113.4        
      1000   0.6442644      6.29722        0.96639527     7.2636153      28.872449      493970.4       66             66             113.4        
Loop time of 2.28163 on 600 procs for 1000 steps with 722171 atoms

Performance: 37867.645 tau/day, 438.283 timesteps/s, 316.515 Matom-step/s
99.4% CPU use with 600 MPI tasks x 1 OpenMP threads

MPI task timing breakdown:
Section |  min time  |  avg time  |  max time  |%varavg| %total
---------------------------------------------------------------
Pair    | 0.43752    | 0.68393    | 0.88737    |  12.7 | 29.98
Bond    | 0.0016849  | 0.016314   | 0.037621   |  10.1 |  0.72
Neigh   | 0.28761    | 0.30297    | 0.31383    |   1.2 | 13.28
Comm    | 0.67104    | 0.84675    | 1.2224     |  13.3 | 37.11
Output  | 9.0811e-05 | 0.00046942 | 0.00097645 |   0.0 |  0.02
Modify  | 0.059263   | 0.077014   | 0.09998    |   2.6 |  3.38
Other   |            | 0.3542     |            |       | 15.52

Nlocal:        1203.62 ave        2609 max         835 min
Histogram: 257 263 0 0 0 0 0 0 3 77
Nghost:        9405.89 ave       18729 max        6894 min
Histogram: 237 283 0 0 0 0 0 0 0 80
Neighs:        55447.4 ave       67755 max       38285 min
Histogram: 9 32 49 50 66 73 98 109 88 26

Total # of neighbors = 33268458
Ave neighs/atom = 46.067286
Ave special neighs/atom = 0.31903801
Neighbor list builds = 23
Dangerous builds = 0
Generated 0 of 10 mixed pair_coeff terms from geometric mixing rule
Last active /omp style is angle_style harmonic
Setting up Verlet run ...
  Unit style    : lj
  Current step  : 0
  Time step     : 0.005
Per MPI rank memory allocation (min/avg/max) = 11.64 | 13.03 | 20.8 Mbytes
   Step          Temp          PotEng         KinEng         TotEng         Press          Volume           Lx             Ly             Lz      
         0   0.6442644      6.29722        0.96639527     7.2636153      28.872449      493970.4       66             66             113.4        
      1000   0.79703068     5.7543642      1.1955444      6.9499086      1.625183       702127.53      74.207698      74.207698      127.50232    
Loop time of 4.90245 on 600 procs for 1000 steps with 722171 atoms

Performance: 88119.227 tau/day, 203.980 timesteps/s, 147.308 Matom-step/s
99.3% CPU use with 600 MPI tasks x 1 OpenMP threads

MPI task timing breakdown:
Section |  min time  |  avg time  |  max time  |%varavg| %total
---------------------------------------------------------------
Pair    | 0.44696    | 0.54234    | 0.6103     |   4.7 | 11.06
Bond    | 0.0024955  | 0.026178   | 0.055842   |  11.2 |  0.53
Neigh   | 2.632      | 2.7558     | 2.8283     |   3.6 | 56.21
Comm    | 0.74199    | 0.93501    | 1.2875     |  13.3 | 19.07
Output  | 0.00010562 | 0.00012105 | 0.00015591 |   0.0 |  0.00
Modify  | 0.41748    | 0.59884    | 0.81249    |  10.1 | 12.22
Other   |            | 0.04412    |            |       |  0.90

Nlocal:        1203.62 ave        2626 max         927 min
Histogram: 520 0 0 0 0 0 0 0 1 79
Nghost:        7789.62 ave       15984 max        6147 min
Histogram: 520 0 0 0 0 0 0 0 0 80
Neighs:        37563.5 ave       42139 max       31900 min
Histogram: 1 17 80 52 74 98 118 100 52 8

Total # of neighbors = 22538100
Ave neighs/atom = 31.208813
Ave special neighs/atom = 0.31903801
Neighbor list builds = 232
Dangerous builds = 0
Generated 0 of 10 mixed pair_coeff terms from geometric mixing rule
Last active /omp style is angle_style harmonic
Setting up Verlet run ...
  Unit style    : lj
  Current step  : 1000
  Time step     : 0.005
Per MPI rank memory allocation (min/avg/max) = 11.64 | 13.04 | 20.81 Mbytes
   Step          Temp          PotEng         KinEng         TotEng         Press          Volume           Lx             Ly             Lz      
      1000   0.79703068     5.7543642      1.1955444      6.9499086      1.625183       702127.53      74.207698      74.207698      127.50232    
    500000   0.9024255      6.2073129      1.3536364      7.5609493      0.97430902     782267.86      76.929951      76.929951      132.17964    
   1000000   0.90798236     6.2207002      1.3619717      7.5826718      0.99735017     784319.88      76.997159      76.997159      132.29512    
   1500000   0.90636948     6.2282185      1.3595523      7.5877708      1.0099738      785259.11      77.027882      77.027882      132.34791    
   2000000   0.90771582     6.2280527      1.3615718      7.5896246      1.0057849      785483.2       77.035208      77.035208      132.36049    
   2500000   0.90931284     6.2269396      1.3639674      7.5909069      1.0072109      785866.7       77.047743      77.047743      132.38203    
   3000000   0.90876757     6.2337612      1.3631495      7.5969107      0.99351748     786567.4       77.070636      77.070636      132.42137    
   3500000   0.90847572     6.2284916      1.3627117      7.5912033      0.99451896     786225.08      77.059453      77.059453      132.40215    
   4000000   0.90791104     6.230496       1.3618647      7.5923606      0.98786543     786667.59      77.073908      77.073908      132.42699    
   4500000   0.9093606      6.2322142      1.364039       7.5962532      0.98708753     786965.27      77.083628      77.083628      132.44369    
   5000000   0.91014954     6.2302372      1.3652224      7.5954596      0.98449258     786431.45      77.066195      77.066195      132.41374    
   5500000   0.90835095     6.2323763      1.3625245      7.5949009      1.0048501      786353.82      77.063659      77.063659      132.40938    
   6000000   0.90881511     6.2315876      1.3632208      7.5948084      1.0063521      786547.85      77.069997      77.069997      132.42027    
   6500000   0.9082472      6.2280304      1.3623689      7.5903993      1.0014199      786240.89      77.05997       77.05997       132.40304    
   7000000   0.90940206     6.2294241      1.3641012      7.5935253      1.0017986      786504.5       77.068581      77.068581      132.41784    
   7500000   0.90913696     6.2326441      1.3637036      7.5963477      1.0095555      786779.39      77.077559      77.077559      132.43326    
   8000000   0.90860154     6.2338442      1.3629004      7.5967447      1.0080903      786787.62      77.077828      77.077828      132.43372    
   8500000   0.90854873     6.2314141      1.3628212      7.5942353      1.0020542      786593.15      77.071477      77.071477      132.42281    
   9000000   0.90953289     6.230398       1.3642974      7.5946955      1.0109636      786131.72      77.056403      77.056403      132.39691    
   9500000   0.90831718     6.2315513      1.3624739      7.5940251      1.0066478      786661.49      77.073709      77.073709      132.42665    
  10000000   0.90952202     6.2301597      1.3642811      7.5944409      0.99290485     786402.63      77.065254      77.065254      132.41212    
  10500000   0.90861097     6.2317458      1.3629146      7.5946603      0.99665009     787034.85      77.0859        77.0859        132.44759    
  11000000   0.90784978     6.2321438      1.3617728      7.5939166      0.9877809      786652.04      77.0734        77.0734        132.42611    
  11500000   0.90853291     6.2292392      1.3627975      7.5920366      1.0082265      785934.56      77.049961      77.049961      132.38584    
  12000000   0.90810564     6.2323125      1.3621566      7.5944691      0.9975892      787010.31      77.085099      77.085099      132.44622    
  12500000   0.90814289     6.2317063      1.3622124      7.5939187      0.99049191     786523.52      77.069202      77.069202      132.4189     
  13000000   0.90923394     6.2301415      1.363849       7.5939906      1.0195264      786197.82      77.058563      77.058563      132.40062    
  13500000   0.90759114     6.2329802      1.3613848      7.594365       0.99519188     786928.76      77.082436      77.082436      132.44164    
  14000000   0.90729245     6.2338021      1.3609368      7.5947389      0.98766974     786948.4       77.083077      77.083077      132.44274    
  14500000   0.90811309     6.230968       1.3621677      7.5931357      1.000095       786471.13      77.067491      77.067491      132.41596    
  15000000   0.90906688     6.2308225      1.3635984      7.594421       0.98841522     786907.66      77.081747      77.081747      132.44046    
  15500000   0.9073569      6.2258673      1.3610335      7.5869008      1.0091334      785750.21      77.043936      77.043936      132.37549    
  16000000   0.90754796     6.2299962      1.3613201      7.5913162      0.98690182     786499.48      77.068417      77.068417      132.41755    
  16500000   0.90893099     6.228374       1.3633946      7.5917686      1.0169038      786023.66      77.052872      77.052872      132.39084    
  17000000   0.90728861     6.2299809      1.360931       7.5909119      0.99536495     786343.04      77.063307      77.063307      132.40877    
  17500000   0.90909251     6.2344817      1.3636369      7.5981186      1.0172635      786705.05      77.075131      77.075131      132.42909    
  18000000   0.90813266     6.2300391      1.3621971      7.5922362      1.0061857      786265.96      77.060789      77.060789      132.40445    
  18500000   0.90885884     6.2323893      1.3632864      7.5956757      1.0063356      786460.99      77.06716       77.06716       132.41539    
  19000000   0.90803789     6.2304865      1.362055       7.5925415      1.0141087      786119.36      77.055999      77.055999      132.39622    
  19500000   0.90862724     6.2297952      1.362939       7.5927342      0.9917398      786397.4       77.065083      77.065083      132.41182    
  20000000   0.90915623     6.2333726      1.3637324      7.597105       1.0006786      786700.95      77.074997      77.074997      132.42886    
  20001000   0.90794671     6.2304427      1.3619182      7.5923609      1.0161074      786496.2       77.06831       77.06831       132.41737    
Loop time of 69637.3 on 600 procs for 20000000 steps with 722171 atoms

Performance: 124071.489 tau/day, 287.203 timesteps/s, 207.409 Matom-step/s
99.4% CPU use with 600 MPI tasks x 1 OpenMP threads

MPI task timing breakdown:
Section |  min time  |  avg time  |  max time  |%varavg| %total
---------------------------------------------------------------
Pair    | 7295.6     | 8582.4     | 11229      |1374.8 | 12.32
Bond    | 49.164     | 470.58     | 1626.1     |2659.3 |  0.68
Neigh   | 32936      | 34831      | 35986      | 422.9 | 50.02
Comm    | 12521      | 16263      | 21847      |1745.9 | 23.35
Output  | 0.61011    | 1.2204     | 1.9175     |  39.7 |  0.00
Modify  | 5537.2     | 8703       | 13317      |2185.7 | 12.50
Other   |            | 785.9      |            |       |  1.13

Nlocal:        1203.62 ave        2585 max         907 min
Histogram: 393 127 0 0 0 0 0 0 0 80
Nghost:        7336.94 ave       15213 max        5668 min
Histogram: 421 99 0 0 0 0 0 0 0 80
Neighs:        33909.4 ave       45736 max       28261 min
Histogram: 136 239 32 17 17 27 12 14 44 62

Total # of neighbors = 20345616
Ave neighs/atom = 28.172851
Ave special neighs/atom = 0.31903801
Neighbor list builds = 3444545
Dangerous builds = 0
System init for write_restart ...
Generated 0 of 10 mixed pair_coeff terms from geometric mixing rule
Last active /omp style is angle_style harmonic
System init for write_data ...
Generated 0 of 10 mixed pair_coeff terms from geometric mixing rule
Last active /omp style is angle_style harmonic
WARNING: Not all mixed pair coeffs generated from mixing. Use write_data with 'pair ij' option to store all pair coeffs. (src/write_data.cpp:364)
Total wall time: 19:21:02
======================================
Running post-processing...
======================================
Generating convergence plot...
Plot saved to ./output_plots/convergence_plots/slab_support_tall_angle_8_1.0_1.0_20000000_convergence.png
Generating stress profiles...
No stress data found for slab_support_tall_angle_8_1.0_1.0_20000000, skipping stress plots
No volume data found for slab_support_tall_angle_8_1.0_1.0_20000000, skipping volume fraction plots
Generating piston plots...
Error: Piston position file not found: ./output_files/piston_data/piston_position_slab_support_tall_angle_8_1.0_1.0_20000000.dat
Generating computational efficiency plot...
Found data file: ./data_files/slab_support_tall_angle_8.data
Mobile atoms: 595725
Tracking info written to /jet/home/dpollard/Documents/lammps_work/tracking.txt
Saved /jet/home/dpollard/Documents/lammps_work/time_vs_atoms.png
Saved /jet/home/dpollard/Documents/lammps_work/time_vs_timesteps.png
======================================
Done! Results are in: /jet/home/dpollard/Documents/lammps_runs/slab_with_support_slab_support_tall_angle_8_1.0_1.0_20260212_021107
======================================
