======================================
Working directory: /jet/home/dpollard/Documents/lammps_runs/slab_with_support_slab_support_tall_angle_2_1.0_1.4_20260203_133122
Trajectory directory (scratch): /ocean/projects/chm250028p/dpollard/lammps_trajectories/slab_with_support_slab_support_tall_angle_2_1.0_1.4_20260203_133122
======================================
Running LAMMPS in slab_with_support with:
  dataname=slab_support_tall_angle_2
  epsSS=1.0, epsSP=1.4
  nsteps=2000000, oldsteps=0, totsteps=2000000
SLURM tasks per node: 120
SLURM CPUs per task: 1
SLURM_GPUS_ON_NODE: 
GPUs allocated: 
Running CPU-only with 600 tasks
LAMMPS (22 Jul 2025)
OMP_NUM_THREADS environment is not set. Defaulting to 1 thread.
  using 1 OpenMP thread(s) per MPI task
using multi-threaded neighbor list subroutines
Reading data file ...
  orthogonal box = (0 0 0) to (66 66 92)
  6 by 10 by 10 MPI processor grid
  reading atoms ...
  623312 atoms
  scanning bonds ...
  3 = max bonds/atom
  scanning angles ...
  6 = max angles/atom
  orthogonal box = (0 0 0) to (66 66 92)
  6 by 10 by 10 MPI processor grid
  reading bonds ...
  108800 bonds
  reading angles ...
  159754 angles
Finding 1-2 1-3 1-4 neighbors ...
  special bond factors lj:    0        0        0       
  special bond factors coul:  0        0        0       
     4 = max # of 1-2 neighbors
     4 = max # of 1-3 neighbors
     8 = max # of 1-4 neighbors
    12 = max # of special neighbors
  special bonds CPU = 0.132 seconds
  read_data CPU = 5.657 seconds
>>> is_restart = 0
>>> Previous    # of timesteps: 0
>>> Current     # of timesteps: 2000000
>>> Cumulative  # of timesteps: 2000000
96118 atoms in group polymer
400752 atoms in group solvent
63221 atoms in group support
63221 atoms in group piston
496870 atoms in group mobile
222560 atoms in group polymer_and_support
Finding 1-2 1-3 1-4 neighbors ...
  special bond factors lj:    0        1        1       
  special bond factors coul:  0        1        1       
     4 = max # of 1-2 neighbors
    12 = max # of special neighbors
  special bonds CPU = 0.037 seconds
Generated 0 of 10 mixed pair_coeff terms from geometric mixing rule
Last active /omp style is angle_style harmonic
Neighbor list info ...
  update: every = 1 steps, delay = 0 steps, check = yes
  max neighbors/atom: 2000, page size: 100000
  master list distance cutoff = 2.8
  ghost atom cutoff = 5
  binsize = 1.4, bins = 48 48 66
  1 neighbor lists, perpetual/occasional/extra = 1 0 0
  (1) pair lj/cut/omp, perpetual
      attributes: half, newton on, omp
      pair build: half/bin/newton/omp
      stencil: half/bin/3d
      bin: standard
Setting up cg style minimization ...
  Unit style    : lj
  Current step  : 0
Per MPI rank memory allocation (min/avg/max) = 12.3 | 14.49 | 22.42 Mbytes
   Step          Temp          E_pair         E_mol          TotEng         Press     
         0   0              5.2746034e+18  15964.781      5.2746034e+18  3.2815543e+19
      1748   0             -4.322516       13.309084      8.9865678      35.245061    
Loop time of 10.5144 on 600 procs for 1748 steps with 623312 atoms

99.3% CPU use with 600 MPI tasks x 1 OpenMP threads

Minimization stats:
  Stopping criterion = energy tolerance
  Energy initial, next-to-last, final = 
    5.27460341295067e+18   8.98722502957989    8.9865677918565
  Force two-norm initial, final = 4.5466275e+27 3882.5215
  Force max component initial, final = 2.2586278e+27 1333.9588
  Final line search alpha, max atom move = 6.3603998e-05 0.084845113
  Iterations, force evaluations = 1748 1866

MPI task timing breakdown:
Section |  min time  |  avg time  |  max time  |%varavg| %total
---------------------------------------------------------------
Pair    | 1.0573     | 1.9492     | 4.7058     |  52.0 | 18.54
Bond    | 0.0042968  | 0.046408   | 0.15235    |  25.2 |  0.44
Neigh   | 3.407      | 3.6053     | 3.7647     |   4.2 | 34.29
Comm    | 1.3225     | 2.6255     | 4.8665     |  35.0 | 24.97
Output  | 0          | 0          | 0          |   0.0 |  0.00
Modify  | 0.014379   | 0.026612   | 0.054086   |   5.1 |  0.25
Other   |            | 2.261      |            |       | 21.51

Nlocal:        1038.85 ave        1977 max         665 min
Histogram: 124 308 48 0 0 0 0 0 75 45
Nghost:        9305.58 ave       17057 max        6188 min
Histogram: 140 306 34 0 0 0 0 0 40 80
Neighs:        47887.9 ave       63923 max       29050 min
Histogram: 18 34 65 59 72 88 96 72 63 33

Total # of neighbors = 28732714
Ave neighs/atom = 46.096841
Ave special neighs/atom = 0.34910286
Neighbor list builds = 356
Dangerous builds = 12
Generated 0 of 10 mixed pair_coeff terms from geometric mixing rule
Last active /omp style is angle_style harmonic
Setting up Verlet run ...
  Unit style    : lj
  Current step  : 0
  Time step     : 0.001
Per MPI rank memory allocation (min/avg/max) = 11.18 | 13.16 | 20.17 Mbytes
   Step          Temp          PotEng         KinEng         TotEng         Press          Volume           Lx             Ly             Lz      
         0   0.07971446     8.9865678      0.1195715      9.1061393      35.369045      400752         66             66             92           
      1000   0.69909614     9.1700437      1.0486425      10.218686      38.078984      400752         66             66             92           
Loop time of 2.05312 on 600 procs for 1000 steps with 623312 atoms

Performance: 42082.392 tau/day, 487.065 timesteps/s, 303.593 Matom-step/s
99.4% CPU use with 600 MPI tasks x 1 OpenMP threads

MPI task timing breakdown:
Section |  min time  |  avg time  |  max time  |%varavg| %total
---------------------------------------------------------------
Pair    | 0.36902    | 0.59063    | 0.74816    |  10.6 | 28.77
Bond    | 0.0016572  | 0.01562    | 0.043766   |  12.5 |  0.76
Neigh   | 0.25185    | 0.26592    | 0.27766    |   1.3 | 12.95
Comm    | 0.63345    | 0.83857    | 1.1385     |  12.4 | 40.84
Output  | 0.00010334 | 0.00058121 | 0.00097809 |   0.0 |  0.03
Modify  | 0.049932   | 0.065551   | 0.084572   |   2.2 |  3.19
Other   |            | 0.2762     |            |       | 13.45

Nlocal:        1038.85 ave        1944 max         706 min
Histogram: 173 307 0 0 0 0 0 0 30 90
Nghost:        9305.02 ave       16795 max        6514 min
Histogram: 204 276 0 0 0 0 0 0 0 120
Neighs:        47645.4 ave       55898 max       33077 min
Histogram: 8 11 24 38 68 81 94 125 118 33

Total # of neighbors = 28587259
Ave neighs/atom = 45.863482
Ave special neighs/atom = 0.34910286
Neighbor list builds = 28
Dangerous builds = 0
Generated 0 of 10 mixed pair_coeff terms from geometric mixing rule
Last active /omp style is angle_style harmonic
Setting up Verlet run ...
  Unit style    : lj
  Current step  : 0
  Time step     : 0.005
Per MPI rank memory allocation (min/avg/max) = 11.19 | 13.17 | 20.17 Mbytes
   Step          Temp          PotEng         KinEng         TotEng         Press          Volume           Lx             Ly             Lz      
         0   0.69909614     9.1700437      1.0486425      10.218686      38.078984      400752         66             66             92           
      1000   0.80000977     7.0905315      1.2000127      8.2905443      1.5529585      592681.29      75.195602      75.195602      104.81811    
Loop time of 3.8233 on 600 procs for 1000 steps with 623312 atoms

Performance: 112991.407 tau/day, 261.554 timesteps/s, 163.030 Matom-step/s
99.2% CPU use with 600 MPI tasks x 1 OpenMP threads

MPI task timing breakdown:
Section |  min time  |  avg time  |  max time  |%varavg| %total
---------------------------------------------------------------
Pair    | 0.40723    | 0.45716    | 0.52174    |   3.1 | 11.96
Bond    | 0.0026174  | 0.024178   | 0.063723   |  14.0 |  0.63
Neigh   | 1.9204     | 2.0116     | 2.1036     |   3.2 | 52.61
Comm    | 0.66212    | 0.88219    | 1.1254     |  13.1 | 23.07
Output  | 0.00010772 | 0.00012109 | 0.00017731 |   0.0 |  0.00
Modify  | 0.2606     | 0.41441    | 0.56967    |  12.5 | 10.84
Other   |            | 0.03361    |            |       |  0.88

Nlocal:        1038.85 ave        1933 max         792 min
Histogram: 480 0 0 0 0 0 0 0 2 118
Nghost:        7488.26 ave       13854 max        5763 min
Histogram: 480 0 0 0 0 0 0 0 0 120
Neighs:        30971.8 ave       34165 max       27779 min
Histogram: 8 18 45 89 122 155 102 41 14 6

Total # of neighbors = 18583061
Ave neighs/atom = 29.813418
Ave special neighs/atom = 0.34910286
Neighbor list builds = 238
Dangerous builds = 0
Generated 0 of 10 mixed pair_coeff terms from geometric mixing rule
Last active /omp style is angle_style harmonic
Setting up Verlet run ...
  Unit style    : lj
  Current step  : 1000
  Time step     : 0.005
Per MPI rank memory allocation (min/avg/max) = 11.19 | 13.18 | 20.17 Mbytes
   Step          Temp          PotEng         KinEng         TotEng         Press          Volume           Lx             Ly             Lz      
      1000   0.80000977     7.0905315      1.2000127      8.2905443      1.5529585      592681.29      75.195602      75.195602      104.81811    
    100000   0.86180321     6.8810562      1.2927027      8.1737589      1.0049837      628027.74      76.661677      76.661677      106.86173    
    200000   0.87379789     6.8564715      1.3106947      8.1671663      1.0002877      628867.1       76.695814      76.695814      106.90932    
    300000   0.88134414     6.8382356      1.3220141      8.1602497      0.99962355     628591.74      76.684618      76.684618      106.89371    
    400000   0.88491212     6.8240397      1.3273661      8.1514057      0.99372285     628154.65      76.66684       76.66684       106.86893    
    500000   0.88599983     6.8190596      1.3289976      8.1480572      0.99172239     628612.04      76.685444      76.685444      106.89486    
    600000   0.88731973     6.806739       1.3309775      8.1377165      1.0010375      627570.98      76.643087      76.643087      106.83582    
    700000   0.89093265     6.8068717      1.3363968      8.1432686      0.99658534     628107.87      76.664937      76.664937      106.86628    
    800000   0.89053201     6.8069281      1.3357959      8.142724       0.97382934     628682.19      76.688296      76.688296      106.89884    
    900000   0.89251829     6.8025703      1.3387753      8.1413456      1.0105639      627879.79      76.655656      76.655656      106.85334    
   1000000   0.89088263     6.803592       1.3363218      8.1399138      0.99653893     628360.39      76.675209      76.675209      106.88059    
   1100000   0.89362812     6.8041171      1.34044        8.1445572      1.0156959      628725.51      76.690057      76.690057      106.90129    
   1200000   0.89172086     6.8022872      1.3375792      8.1398663      1.0120199      628605.66      76.685184      76.685184      106.8945     
   1300000   0.89403444     6.8000884      1.3410495      8.1411379      1.014602       628248.48      76.670657      76.670657      106.87425    
   1400000   0.89468473     6.8000191      1.3420249      8.1420441      1.0163889      628360.95      76.675232      76.675232      106.88063    
   1500000   0.89178378     6.7997892      1.3376735      8.1374628      0.99483185     628903.48      76.697293      76.697293      106.91138    
   1600000   0.89189824     6.8025708      1.3378452      8.140416       0.99681506     628756.15      76.691303      76.691303      106.90303    
   1700000   0.89209753     6.8044767      1.3381442      8.1426209      0.98876602     629195.75      76.709172      76.709172      106.92794    
   1800000   0.89178455     6.8005566      1.3376747      8.1382313      1.010338       628610.32      76.685374      76.685374      106.89476    
   1900000   0.89195677     6.8022609      1.337933       8.1401939      0.9831685      628998.94      76.701173      76.701173      106.91679    
   2000000   0.89446381     6.8004293      1.3416936      8.1421228      1.0005832      628697.88      76.688934      76.688934      106.89973    
   2001000   0.89149495     6.8014888      1.3372403      8.138729       1.0067162      628731.45      76.690299      76.690299      106.90163    
Loop time of 5736.75 on 600 procs for 2000000 steps with 623312 atoms

Performance: 150607.846 tau/day, 348.629 timesteps/s, 217.305 Matom-step/s
99.3% CPU use with 600 MPI tasks x 1 OpenMP threads

MPI task timing breakdown:
Section |  min time  |  avg time  |  max time  |%varavg| %total
---------------------------------------------------------------
Pair    | 672.88     | 745.97     | 830.49     | 109.7 | 13.00
Bond    | 23.23      | 46.722     | 75.038     | 146.5 |  0.81
Neigh   | 2461       | 2583.7     | 2722.1     | 125.0 | 45.04
Comm    | 1118.1     | 1466.1     | 1901.3     | 553.3 | 25.56
Output  | 0.090049   | 0.31913    | 0.60729    |  28.5 |  0.01
Modify  | 539.05     | 830.95     | 1099.8     | 535.1 | 14.48
Other   |            | 62.94      |            |       |  1.10

Nlocal:        1038.85 ave        1922 max         798 min
Histogram: 480 0 0 0 0 0 0 0 0 120
Nghost:        7275.46 ave       13453 max        5671 min
Histogram: 480 0 0 0 0 0 0 0 0 120
Neighs:        29328.6 ave       31883 max       27141 min
Histogram: 2 29 64 115 147 133 69 28 11 2

Total # of neighbors = 17597169
Ave neighs/atom = 28.231719
Ave special neighs/atom = 0.34910286
Neighbor list builds = 344024
Dangerous builds = 0
System init for write_restart ...
Generated 0 of 10 mixed pair_coeff terms from geometric mixing rule
Last active /omp style is angle_style harmonic
System init for write_data ...
Generated 0 of 10 mixed pair_coeff terms from geometric mixing rule
Last active /omp style is angle_style harmonic
WARNING: Not all mixed pair coeffs generated from mixing. Use write_data with 'pair ij' option to store all pair coeffs. (src/write_data.cpp:364)
Total wall time: 1:36:00
======================================
Running post-processing...
======================================
Generating convergence plot...
Plot saved to ./output_plots/convergence_plots/slab_support_tall_angle_2_1.0_1.4_2000000_convergence.png
Generating stress profiles...
No stress data found for slab_support_tall_angle_2_1.0_1.4_2000000, skipping stress plots
No volume data found for slab_support_tall_angle_2_1.0_1.4_2000000, skipping volume fraction plots
Generating piston plots...
Error: Piston position file not found: ./output_files/piston_data/piston_position_slab_support_tall_angle_2_1.0_1.4_2000000.dat
Generating computational efficiency plot...
Found data file: ./data_files/slab_support_tall_angle_2.data
Mobile atoms: 496866
Tracking info written to /jet/home/dpollard/Documents/lammps_work/tracking.txt
Saved /jet/home/dpollard/Documents/lammps_work/time_vs_atoms.png
Saved /jet/home/dpollard/Documents/lammps_work/time_vs_timesteps.png
======================================
Done! Results are in: /jet/home/dpollard/Documents/lammps_runs/slab_with_support_slab_support_tall_angle_2_1.0_1.4_20260203_133122
======================================
