======================================
Working directory: /jet/home/dpollard/Documents/lammps_runs/slab_with_support_slab_support_tall_angle_2_1.0_0.9_20260205_144843
Trajectory directory (scratch): /ocean/projects/chm250028p/dpollard/lammps_trajectories/slab_with_support_slab_support_tall_angle_2_1.0_0.9_20260205_144843
======================================
Running LAMMPS in slab_with_support with:
  dataname=slab_support_tall_angle_2
  epsSS=1.0, epsSP=0.9
  nsteps=700000, oldsteps=0, totsteps=700000
SLURM tasks per node: 120
SLURM CPUs per task: 1
SLURM_GPUS_ON_NODE: 
GPUs allocated: 
Running CPU-only with 600 tasks
LAMMPS (22 Jul 2025)
OMP_NUM_THREADS environment is not set. Defaulting to 1 thread.
  using 1 OpenMP thread(s) per MPI task
using multi-threaded neighbor list subroutines
Reading data file ...
  orthogonal box = (0 0 0) to (76 76 95)
  6 by 10 by 10 MPI processor grid
  reading atoms ...
  812478 atoms
  scanning bonds ...
  3 = max bonds/atom
  scanning angles ...
  6 = max angles/atom
  orthogonal box = (0 0 0) to (76 76 95)
  6 by 10 by 10 MPI processor grid
  reading bonds ...
  108800 bonds
  reading angles ...
  159754 angles
Finding 1-2 1-3 1-4 neighbors ...
  special bond factors lj:    0        0        0       
  special bond factors coul:  0        0        0       
     4 = max # of 1-2 neighbors
     4 = max # of 1-3 neighbors
     8 = max # of 1-4 neighbors
    12 = max # of special neighbors
  special bonds CPU = 0.145 seconds
  read_data CPU = 7.421 seconds
>>> is_restart = 0
>>> Previous    # of timesteps: 0
>>> Current     # of timesteps: 700000
>>> Cumulative  # of timesteps: 700000
96118 atoms in group polymer
548720 atoms in group solvent
83820 atoms in group support
83820 atoms in group piston
644838 atoms in group mobile
263758 atoms in group polymer_and_support
Finding 1-2 1-3 1-4 neighbors ...
  special bond factors lj:    0        1        1       
  special bond factors coul:  0        1        1       
     4 = max # of 1-2 neighbors
    12 = max # of special neighbors
  special bonds CPU = 0.048 seconds
Generated 0 of 10 mixed pair_coeff terms from geometric mixing rule
Last active /omp style is angle_style harmonic
Neighbor list info ...
  update: every = 1 steps, delay = 0 steps, check = yes
  max neighbors/atom: 2000, page size: 100000
  master list distance cutoff = 2.8
  ghost atom cutoff = 5
  binsize = 1.4, bins = 55 55 68
  1 neighbor lists, perpetual/occasional/extra = 1 0 0
  (1) pair lj/cut/omp, perpetual
      attributes: half, newton on, omp
      pair build: half/bin/newton/omp
      stencil: half/bin/3d
      bin: standard
Setting up cg style minimization ...
  Unit style    : lj
  Current step  : 0
Per MPI rank memory allocation (min/avg/max) = 13.08 | 15.31 | 23.75 Mbytes
   Step          Temp          E_pair         E_mol          TotEng         Press     
         0   0              1.232514e+19   12247.765      1.232514e+19   7.2998288e+19
      2132   0             -4.6420961      9.8864708      5.2443747      19.951418    
Loop time of 16.9998 on 600 procs for 2132 steps with 812478 atoms

99.4% CPU use with 600 MPI tasks x 1 OpenMP threads

Minimization stats:
  Stopping criterion = energy tolerance
  Energy initial, next-to-last, final = 
    1.23251400627342e+19   5.24477611673832   5.24437472356479
  Force two-norm initial, final = 1.6960498e+28 2431.6695
  Force max component initial, final = 8.7652177e+27 555.62126
  Final line search alpha, max atom move = 8.0861146e-05 0.044928172
  Iterations, force evaluations = 2132 2273

MPI task timing breakdown:
Section |  min time  |  avg time  |  max time  |%varavg| %total
---------------------------------------------------------------
Pair    | 1.8124     | 2.8888     | 7.3721     |  61.6 | 16.99
Bond    | 0.0053225  | 0.056764   | 0.24086    |  32.5 |  0.33
Neigh   | 6.3708     | 6.7336     | 7.0302     |   5.6 | 39.61
Comm    | 1.8196     | 3.6664     | 6.3849     |  42.7 | 21.57
Output  | 0          | 0          | 0          |   0.0 |  0.00
Modify  | 0.021874   | 0.041368   | 0.095458   |   7.4 |  0.24
Other   |            | 3.613      |            |       | 21.25

Nlocal:        1354.13 ave        2616 max         906 min
Histogram: 235 222 23 0 0 0 0 0 78 42
Nghost:        10107.7 ave       19026 max        6905 min
Histogram: 238 227 15 0 0 0 0 0 59 61
Neighs:        58704.1 ave       82122 max       40484 min
Histogram: 46 78 87 87 78 53 55 49 40 27

Total # of neighbors = 35222442
Ave neighs/atom = 43.351872
Ave special neighs/atom = 0.26782264
Neighbor list builds = 535
Dangerous builds = 24
Generated 0 of 10 mixed pair_coeff terms from geometric mixing rule
Last active /omp style is angle_style harmonic
Setting up Verlet run ...
  Unit style    : lj
  Current step  : 0
  Time step     : 0.001
Per MPI rank memory allocation (min/avg/max) = 11.96 | 13.99 | 21.5 Mbytes
   Step          Temp          PotEng         KinEng         TotEng         Press          Volume           Lx             Ly             Lz      
         0   0.079366801    5.2443747      0.11905005     5.3634248      20.068935      548720         76             76             95           
      1000   0.61933262     5.6910977      0.92899779     6.6200955      24.438547      548720         76             76             95           
Loop time of 2.40056 on 600 procs for 1000 steps with 812478 atoms

Performance: 35991.675 tau/day, 416.570 timesteps/s, 338.454 Matom-step/s
99.4% CPU use with 600 MPI tasks x 1 OpenMP threads

MPI task timing breakdown:
Section |  min time  |  avg time  |  max time  |%varavg| %total
---------------------------------------------------------------
Pair    | 0.48246    | 0.72601    | 0.97905    |  13.6 | 30.24
Bond    | 0.0016683  | 0.01537    | 0.055717   |  15.7 |  0.64
Neigh   | 0.29612    | 0.3103     | 0.32115    |   1.1 | 12.93
Comm    | 0.69453    | 0.88283    | 1.2195     |  13.7 | 36.78
Output  | 0.00010223 | 0.0010438  | 0.0016016  |   0.9 |  0.04
Modify  | 0.06559    | 0.08353    | 0.11114    |   2.8 |  3.48
Other   |            | 0.3815     |            |       | 15.89

Nlocal:        1354.13 ave        2581 max         918 min
Histogram: 236 244 0 0 0 0 0 0 49 71
Nghost:        10108.9 ave       18784 max        7057 min
Histogram: 274 206 0 0 0 0 0 0 17 103
Neighs:        58434.8 ave       73581 max       42140 min
Histogram: 25 31 70 76 88 81 77 62 51 39

Total # of neighbors = 35060901
Ave neighs/atom = 43.153047
Ave special neighs/atom = 0.26782264
Neighbor list builds = 25
Dangerous builds = 0
Generated 0 of 10 mixed pair_coeff terms from geometric mixing rule
Last active /omp style is angle_style harmonic
Setting up Verlet run ...
  Unit style    : lj
  Current step  : 0
  Time step     : 0.005
Per MPI rank memory allocation (min/avg/max) = 11.96 | 13.99 | 21.5 Mbytes
   Step          Temp          PotEng         KinEng         TotEng         Press          Volume           Lx             Ly             Lz      
         0   0.61933262     5.6910977      0.92899779     6.6200955      24.438547      548720         76             76             95           
      1000   0.78122406     4.8892676      1.1718346      6.0611023      1.7097         780402.76      85.467879      85.467879      106.83485    
Loop time of 4.62799 on 600 procs for 1000 steps with 812478 atoms

Performance: 93345.083 tau/day, 216.077 timesteps/s, 175.557 Matom-step/s
99.3% CPU use with 600 MPI tasks x 1 OpenMP threads

MPI task timing breakdown:
Section |  min time  |  avg time  |  max time  |%varavg| %total
---------------------------------------------------------------
Pair    | 0.46412    | 0.57488    | 0.68704    |   4.4 | 12.42
Bond    | 0.0025083  | 0.023565   | 0.079029   |  18.1 |  0.51
Neigh   | 2.4089     | 2.522      | 2.6176     |   3.4 | 54.49
Comm    | 0.75791    | 0.99725    | 1.2792     |  13.7 | 21.55
Output  | 9.582e-05  | 0.00011088 | 0.00012822 |   0.0 |  0.00
Modify  | 0.29342    | 0.47192    | 0.66262    |  12.8 | 10.20
Other   |            | 0.03832    |            |       |  0.83

Nlocal:        1354.13 ave        2504 max        1034 min
Histogram: 480 0 0 0 0 0 0 0 0 120
Nghost:        8395.34 ave       15694 max        6390 min
Histogram: 480 0 0 0 0 0 0 0 0 120
Neighs:        39640.6 ave       43066 max       36637 min
Histogram: 13 38 70 107 91 125 98 49 6 3

Total # of neighbors = 23784347
Ave neighs/atom = 29.273835
Ave special neighs/atom = 0.26782264
Neighbor list builds = 232
Dangerous builds = 0
Generated 0 of 10 mixed pair_coeff terms from geometric mixing rule
Last active /omp style is angle_style harmonic
Setting up Verlet run ...
  Unit style    : lj
  Current step  : 1000
  Time step     : 0.005
Per MPI rank memory allocation (min/avg/max) = 11.97 | 13.99 | 21.5 Mbytes
   Step          Temp          PotEng         KinEng         TotEng         Press          Volume           Lx             Ly             Lz      
      1000   0.78122406     4.8892676      1.1718346      6.0611023      1.7097         780402.76      85.467879      85.467879      106.83485    
    100000   0.85906812     5.0264168      1.2886006      6.3150174      1.0058878      858757.98      88.237581      88.237581      110.29698    
    200000   0.8688266      5.0449798      1.3032383      6.3482181      0.99091421     864175.76      88.422751      88.422751      110.52844    
    300000   0.87781734     5.0565983      1.3167244      6.3733227      1.000631       867471.87      88.535028      88.535028      110.66879    
    400000   0.88035357     5.0614327      1.3205287      6.3819614      0.9842776      869503.68      88.604097      88.604097      110.75512    
    500000   0.88466057     5.0649057      1.3269892      6.391895       1.0034512      870889.77      88.651154      88.651154      110.81394    
    600000   0.88572814     5.0667962      1.3285906      6.3953868      1.0104232      871639.38      88.676582      88.676582      110.84573    
    700000   0.88734229     5.0641923      1.3310118      6.3952041      1.0052455      872117.63      88.692797      88.692797      110.866      
    701000   0.88635728     5.0629565      1.3295343      6.3924908      0.98213747     872157.17      88.694137      88.694137      110.86767    
Loop time of 2417.68 on 600 procs for 700000 steps with 812478 atoms

Performance: 125078.673 tau/day, 289.534 timesteps/s, 235.240 Matom-step/s
99.3% CPU use with 600 MPI tasks x 1 OpenMP threads

MPI task timing breakdown:
Section |  min time  |  avg time  |  max time  |%varavg| %total
---------------------------------------------------------------
Pair    | 281.47     | 319.26     | 381.44     | 133.2 | 13.21
Bond    | 1.8473     | 16.271     | 48.246     | 341.7 |  0.67
Neigh   | 1088.2     | 1138.2     | 1186.5     |  75.9 | 47.08
Comm    | 449.71     | 583.42     | 751.04     | 328.2 | 24.13
Output  | 0.066134   | 0.30758    | 0.70704    |  36.7 |  0.01
Modify  | 219.7      | 333.96     | 471.21     | 332.7 | 13.81
Other   |            | 26.23      |            |       |  1.09

Nlocal:        1354.13 ave        2520 max        1002 min
Histogram: 478 2 0 0 0 0 0 0 0 120
Nghost:        7933.54 ave       14829 max        5952 min
Histogram: 480 0 0 0 0 0 0 0 0 120
Neighs:        35671.9 ave       40535 max       31076 min
Histogram: 12 50 94 93 61 76 89 75 36 14

Total # of neighbors = 21403161
Ave neighs/atom = 26.343065
Ave special neighs/atom = 0.26782264
Neighbor list builds = 120970
Dangerous builds = 0
System init for write_restart ...
Generated 0 of 10 mixed pair_coeff terms from geometric mixing rule
Last active /omp style is angle_style harmonic
System init for write_data ...
Generated 0 of 10 mixed pair_coeff terms from geometric mixing rule
Last active /omp style is angle_style harmonic
WARNING: Not all mixed pair coeffs generated from mixing. Use write_data with 'pair ij' option to store all pair coeffs. (src/write_data.cpp:364)
Total wall time: 0:40:51
======================================
Running post-processing...
======================================
Generating convergence plot...
Plot saved to ./output_plots/convergence_plots/slab_support_tall_angle_2_1.0_0.9_700000_convergence.png
Generating stress profiles...
No stress data found for slab_support_tall_angle_2_1.0_0.9_700000, skipping stress plots
No volume data found for slab_support_tall_angle_2_1.0_0.9_700000, skipping volume fraction plots
Generating piston plots...
Error: Piston position file not found: ./output_files/piston_data/piston_position_slab_support_tall_angle_2_1.0_0.9_700000.dat
Generating computational efficiency plot...
Found data file: ./data_files/slab_support_tall_angle_2.data
Mobile atoms: 644834
Entry 'slab_support_tall_angle_2_1.0_0.9_700000' already exists in tracking file, skipping.
Tracking info written to /jet/home/dpollard/Documents/lammps_work/tracking.txt
Saved /jet/home/dpollard/Documents/lammps_work/time_vs_atoms.png
Saved /jet/home/dpollard/Documents/lammps_work/time_vs_timesteps.png
======================================
Done! Results are in: /jet/home/dpollard/Documents/lammps_runs/slab_with_support_slab_support_tall_angle_2_1.0_0.9_20260205_144843
======================================
