======================================
Working directory: /jet/home/dpollard/Documents/lammps_runs/slab_with_support_slab_support_tall_angle_1_1.0_1.4_20260203_001454
Trajectory directory (scratch): /ocean/projects/chm250028p/dpollard/lammps_trajectories/slab_with_support_slab_support_tall_angle_1_1.0_1.4_20260203_001454
======================================
Running LAMMPS in slab_with_support with:
  dataname=slab_support_tall_angle_1
  epsSS=1.0, epsSP=1.4
  nsteps=200000, oldsteps=0, totsteps=200000
SLURM tasks per node: 120
SLURM CPUs per task: 1
SLURM_GPUS_ON_NODE: 
GPUs allocated: 
Running CPU-only with 480 tasks
LAMMPS (22 Jul 2025)
OMP_NUM_THREADS environment is not set. Defaulting to 1 thread.
  using 1 OpenMP thread(s) per MPI task
using multi-threaded neighbor list subroutines
Reading data file ...
  orthogonal box = (0 0 0) to (60 60 92)
  6 by 8 by 10 MPI processor grid
  reading atoms ...
  531766 atoms
  scanning bonds ...
  3 = max bonds/atom
  scanning angles ...
  6 = max angles/atom
  orthogonal box = (0 0 0) to (60 60 92)
  6 by 8 by 10 MPI processor grid
  reading bonds ...
  108800 bonds
  reading angles ...
  159754 angles
Finding 1-2 1-3 1-4 neighbors ...
  special bond factors lj:    0        0        0       
  special bond factors coul:  0        0        0       
     4 = max # of 1-2 neighbors
     4 = max # of 1-3 neighbors
     8 = max # of 1-4 neighbors
    12 = max # of special neighbors
  special bonds CPU = 0.106 seconds
  read_data CPU = 4.923 seconds
>>> is_restart = 0
>>> Previous    # of timesteps: 0
>>> Current     # of timesteps: 200000
>>> Cumulative  # of timesteps: 200000
96118 atoms in group polymer
331200 atoms in group solvent
52224 atoms in group support
52224 atoms in group piston
427318 atoms in group mobile
200566 atoms in group polymer_and_support
Finding 1-2 1-3 1-4 neighbors ...
  special bond factors lj:    0        1        1       
  special bond factors coul:  0        1        1       
     4 = max # of 1-2 neighbors
    12 = max # of special neighbors
  special bonds CPU = 0.017 seconds
Generated 0 of 10 mixed pair_coeff terms from geometric mixing rule
Last active /omp style is angle_style harmonic
Neighbor list info ...
  update: every = 1 steps, delay = 0 steps, check = yes
  max neighbors/atom: 2000, page size: 100000
  master list distance cutoff = 2.8
  ghost atom cutoff = 5
  binsize = 1.4, bins = 43 43 66
  1 neighbor lists, perpetual/occasional/extra = 1 0 0
  (1) pair lj/cut/omp, perpetual
      attributes: half, newton on, omp
      pair build: half/bin/newton/omp
      stencil: half/bin/3d
      bin: standard
Setting up cg style minimization ...
  Unit style    : lj
  Current step  : 0
Per MPI rank memory allocation (min/avg/max) = 11.96 | 14.22 | 22.08 Mbytes
   Step          Temp          E_pair         E_mol          TotEng         Press     
         0   0              1.4176641e+18  18713.193      1.4176641e+18  9.1046568e+18
      1358   0             -3.1605253      15.991629      12.831103      52.292732    
Loop time of 8.78316 on 480 procs for 1358 steps with 531766 atoms

99.3% CPU use with 480 MPI tasks x 1 OpenMP threads

Minimization stats:
  Stopping criterion = energy tolerance
  Energy initial, next-to-last, final = 
    1.4176641249545e+18   12.8322495746885    12.831103452129
  Force two-norm initial, final = 8.5049839e+26 3463.916
  Force max component initial, final = 5.1396333e+26 581.95175
  Final line search alpha, max atom move = 1.3352871e-05 0.0077707264
  Iterations, force evaluations = 1358 1457

MPI task timing breakdown:
Section |  min time  |  avg time  |  max time  |%varavg| %total
---------------------------------------------------------------
Pair    | 0.87179    | 1.7076     | 4.502      |  52.5 | 19.44
Bond    | 0.003354   | 0.04437    | 0.12491    |  22.0 |  0.51
Neigh   | 2.5292     | 2.6655     | 2.8047     |   3.9 | 30.35
Comm    | 1.0435     | 2.4114     | 3.804      |  29.9 | 27.46
Output  | 0          | 0          | 0          |   0.0 |  0.00
Modify  | 0.011539   | 0.021888   | 0.04333    |   4.6 |  0.25
Other   |            | 1.932      |            |       | 22.00

Nlocal:        1107.85 ave        2055 max         697 min
Histogram: 74 200 110 0 0 0 0 2 61 33
Nghost:         9618.5 ave       17293 max        6210 min
Histogram: 72 208 104 0 0 0 0 0 44 52
Neighs:          53708 ave       74528 max       30471 min
Histogram: 20 40 46 50 55 66 73 59 45 26

Total # of neighbors = 25779821
Ave neighs/atom = 48.479634
Ave special neighs/atom = 0.40920254
Neighbor list builds = 268
Dangerous builds = 14
Generated 0 of 10 mixed pair_coeff terms from geometric mixing rule
Last active /omp style is angle_style harmonic
Setting up Verlet run ...
  Unit style    : lj
  Current step  : 0
  Time step     : 0.001
Per MPI rank memory allocation (min/avg/max) = 10.84 | 12.9 | 19.83 Mbytes
   Step          Temp          PotEng         KinEng         TotEng         Press          Volume           Lx             Ly             Lz      
         0   0.080358241    12.831103      0.12053713     12.951641      52.421753      331200         60             60             92           
      1000   0.8349503      12.511701      1.2524231      13.764124      51.790706      331200         60             60             92           
Loop time of 2.30527 on 480 procs for 1000 steps with 531766 atoms

Performance: 37479.413 tau/day, 433.790 timesteps/s, 230.675 Matom-step/s
99.4% CPU use with 480 MPI tasks x 1 OpenMP threads

MPI task timing breakdown:
Section |  min time  |  avg time  |  max time  |%varavg| %total
---------------------------------------------------------------
Pair    | 0.39162    | 0.65328    | 0.82588    |  12.2 | 28.34
Bond    | 0.0017285  | 0.019207   | 0.046674   |  12.4 |  0.83
Neigh   | 0.30075    | 0.31471    | 0.32821    |   1.2 | 13.65
Comm    | 0.75773    | 0.93646    | 1.3        |  13.9 | 40.62
Output  | 8.9258e-05 | 0.00050292 | 0.00095304 |   0.0 |  0.02
Modify  | 0.052586   | 0.069814   | 0.088109   |   2.3 |  3.03
Other   |            | 0.3113     |            |       | 13.50

Nlocal:        1107.85 ave        2017 max         752 min
Histogram: 87 297 0 0 0 0 0 0 14 82
Nghost:        9619.67 ave       16959 max        6792 min
Histogram: 121 263 0 0 0 0 0 0 0 96
Neighs:        53360.4 ave       61941 max       36294 min
Histogram: 8 6 14 30 55 47 62 91 135 32

Total # of neighbors = 25612986
Ave neighs/atom = 48.165896
Ave special neighs/atom = 0.40920254
Neighbor list builds = 31
Dangerous builds = 0
Generated 0 of 10 mixed pair_coeff terms from geometric mixing rule
Last active /omp style is angle_style harmonic
Setting up Verlet run ...
  Unit style    : lj
  Current step  : 0
  Time step     : 0.005
Per MPI rank memory allocation (min/avg/max) = 10.84 | 12.9 | 19.83 Mbytes
   Step          Temp          PotEng         KinEng         TotEng         Press          Volume           Lx             Ly             Lz      
         0   0.8349503      12.511701      1.2524231      13.764124      51.790706      331200         60             60             92           
      1000   0.81259147     9.0107639      1.2188849      10.229649      1.5097782      508404.47      69.213518      69.213518      106.12739    
Loop time of 4.15173 on 480 procs for 1000 steps with 531766 atoms

Performance: 104053.007 tau/day, 240.863 timesteps/s, 128.083 Matom-step/s
99.2% CPU use with 480 MPI tasks x 1 OpenMP threads

MPI task timing breakdown:
Section |  min time  |  avg time  |  max time  |%varavg| %total
---------------------------------------------------------------
Pair    | 0.42754    | 0.49402    | 0.56437    |   3.7 | 11.90
Bond    | 0.0025267  | 0.029388   | 0.066144   |  13.3 |  0.71
Neigh   | 2.131      | 2.2156     | 2.2938     |   3.2 | 53.37
Comm    | 0.78978    | 0.95905    | 1.232      |  12.6 | 23.10
Output  | 9.5069e-05 | 0.00011363 | 0.00023465 |   0.0 |  0.00
Modify  | 0.26299    | 0.42102    | 0.56306    |  12.6 | 10.14
Other   |            | 0.03253    |            |       |  0.78

Nlocal:        1107.85 ave        2070 max         849 min
Histogram: 384 0 0 0 0 0 0 0 17 79
Nghost:        7599.05 ave       13980 max        5874 min
Histogram: 384 0 0 0 0 0 0 0 0 96
Neighs:        33371.1 ave       36726 max       30075 min
Histogram: 9 20 48 73 88 103 83 25 19 12

Total # of neighbors = 16018125
Ave neighs/atom = 30.122507
Ave special neighs/atom = 0.40920254
Neighbor list builds = 245
Dangerous builds = 0
Generated 0 of 10 mixed pair_coeff terms from geometric mixing rule
Last active /omp style is angle_style harmonic
Setting up Verlet run ...
  Unit style    : lj
  Current step  : 1000
  Time step     : 0.005
Per MPI rank memory allocation (min/avg/max) = 10.86 | 12.91 | 19.84 Mbytes
   Step          Temp          PotEng         KinEng         TotEng         Press          Volume           Lx             Ly             Lz      
      1000   0.81259147     9.0107639      1.2188849      10.229649      1.5097782      508404.47      69.213518      69.213518      106.12739    
     10000   0.84282296     8.7943108      1.2642321      10.058543      0.99469639     531102.01      70.228564      70.228564      107.6838     
     20000   0.84950883     8.7475543      1.2742608      10.021815      0.99043462     531247.01      70.234955      70.234955      107.6936     
     30000   0.85098913     8.7165272      1.2764813      9.9930084      1.0055627      530608.22      70.206793      70.206793      107.65042    
     40000   0.85631046     8.7035675      1.2844633      9.9880307      0.99887922     530972.89      70.222872      70.222872      107.67507    
     50000   0.85756558     8.6973557      1.286346       9.9837017      0.99254934     531389.33      70.241226      70.241226      107.70321    
     60000   0.86065815     8.687277       1.2909848      9.9782618      1.000039       531321.26      70.238227      70.238227      107.69861    
     70000   0.86382233     8.678543       1.2957311      9.974274       1.0126286      531195.71      70.232694      70.232694      107.69013    
     80000   0.86446004     8.6697503      1.2966876      9.9664379      1.0120974      530911.21      70.220153      70.220153      107.6709     
     90000   0.86614675     8.6623886      1.2992177      9.9616063      1.0010669      530808.56      70.215627      70.215627      107.66396    
    100000   0.86736812     8.6596012      1.3010497      9.960651       1.005377       531053.91      70.226444      70.226444      107.68055    
    110000   0.86853735     8.6565141      1.3028036      9.9593177      1.0048574      531100.9       70.228515      70.228515      107.68372    
    120000   0.86999971     8.6488264      1.3049971      9.9538235      0.98484195     531121.71      70.229433      70.229433      107.68513    
    130000   0.87250565     8.6474178      1.308756       9.9561739      1.0120799      531234.4       70.234399      70.234399      107.69275    
    140000   0.87282253     8.6414886      1.3092313      9.9507199      0.9791654      531237.02      70.234514      70.234514      107.69292    
    150000   0.87100173     8.6369652      1.3065001      9.9434653      0.9982296      531110.01      70.228917      70.228917      107.68434    
    160000   0.87564422     8.635081       1.3134639      9.9485449      1.0134029      531023.03      70.225083      70.225083      107.67846    
    170000   0.87467196     8.6323932      1.3120055      9.9443987      0.97411246     531221.81      70.233844      70.233844      107.69189    
    180000   0.87724562     8.6313657      1.3158659      9.9472317      0.992343       531337.62      70.238948      70.238948      107.69972    
    190000   0.87669659     8.6248019      1.3150424      9.9398443      1.0058759      530830.9       70.216612      70.216612      107.66547    
    200000   0.87669209     8.6236603      1.3150357      9.938696       0.9768967      531145.84      70.230496      70.230496      107.68676    
    201000   0.87742898     8.6186107      1.316141       9.9347517      1.0127415      530513.86      70.20263       70.20263       107.64403    
Loop time of 590.409 on 480 procs for 200000 steps with 531766 atoms

Performance: 146339.321 tau/day, 338.748 timesteps/s, 180.135 Matom-step/s
99.3% CPU use with 480 MPI tasks x 1 OpenMP threads

MPI task timing breakdown:
Section |  min time  |  avg time  |  max time  |%varavg| %total
---------------------------------------------------------------
Pair    | 65.848     | 80.861     | 95.039     |  88.0 | 13.70
Bond    | 0.51786    | 5.5604     | 12.768     | 140.4 |  0.94
Neigh   | 239.73     | 250.9      | 263.6      |  39.7 | 42.50
Comm    | 130.07     | 166.04     | 223.08     | 171.2 | 28.12
Output  | 0.027545   | 0.27719    | 1.4684     |  57.4 |  0.05
Modify  | 50.019     | 80.877     | 117.22     | 180.5 | 13.70
Other   |            | 5.89       |            |       |  1.00

Nlocal:        1107.85 ave        2035 max         824 min
Histogram: 349 35 0 0 0 0 0 0 44 52
Nghost:        7438.68 ave       13456 max        5465 min
Histogram: 347 37 0 0 0 0 0 0 0 96
Neighs:          32119 ave       37835 max       24314 min
Histogram: 27 19 7 28 53 106 94 78 56 12

Total # of neighbors = 15417138
Ave neighs/atom = 28.992335
Ave special neighs/atom = 0.40920254
Neighbor list builds = 33894
Dangerous builds = 0
System init for write_restart ...
Generated 0 of 10 mixed pair_coeff terms from geometric mixing rule
Last active /omp style is angle_style harmonic
System init for write_data ...
Generated 0 of 10 mixed pair_coeff terms from geometric mixing rule
Last active /omp style is angle_style harmonic
WARNING: Not all mixed pair coeffs generated from mixing. Use write_data with 'pair ij' option to store all pair coeffs. (src/write_data.cpp:364)
Total wall time: 0:10:12
======================================
Running post-processing...
======================================
Generating convergence plot...
Plot saved to ./output_plots/convergence_plots/slab_support_tall_angle_1_1.0_1.4_200000_convergence.png
Generating stress profiles...
No stress data found for slab_support_tall_angle_1_1.0_1.4_200000, skipping stress plots
No volume data found for slab_support_tall_angle_1_1.0_1.4_200000, skipping volume fraction plots
Generating piston plots...
Error: Piston position file not found: ./output_files/piston_data/piston_position_slab_support_tall_angle_1_1.0_1.4_200000.dat
Generating computational efficiency plot...
Found data file: ./data_files/slab_support_tall_angle_1.data
Mobile atoms: 427314
Tracking info written to /jet/home/dpollard/Documents/lammps_work/tracking.txt
Saved /jet/home/dpollard/Documents/lammps_work/time_vs_atoms.png
Saved /jet/home/dpollard/Documents/lammps_work/time_vs_timesteps.png
======================================
Done! Results are in: /jet/home/dpollard/Documents/lammps_runs/slab_with_support_slab_support_tall_angle_1_1.0_1.4_20260203_001454
======================================
