======================================
Working directory: /home/dpollard/Documents/lammps_runs/slab_with_support_slab_support_5beads_tall_4_1.0_1.05_20260302_181205
Trajectory directory (scratch): /expanse/lustre/scratch/dpollard/temp_project/lammps_trajectories/slab_with_support_slab_support_5beads_tall_4_1.0_1.05_20260302_181205
======================================
Running LAMMPS in slab_with_support with:
  dataname=slab_support_5beads_tall_4
  epsSS=1.0, epsSP=1.05
  nsteps=150000, oldsteps=0, totsteps=150000
SLURM tasks per node: 120
SLURM CPUs per task: 1
SLURM_GPUS_ON_NODE: 
GPUs allocated: 
Running CPU-only with 120 tasks
LAMMPS (10 Mar 2021)
  using 1 OpenMP thread(s) per MPI task
Reading data file ...
  orthogonal box = (0.0000000 0.0000000 0.0000000) to (66.000000 66.000000 113.40000)
  5 by 4 by 6 MPI processor grid
  reading atoms ...
  722171 atoms
  scanning bonds ...
  3 = max bonds/atom
  reading bonds ...
  115200 bonds
Finding 1-2 1-3 1-4 neighbors ...
  special bond factors lj:    0        0        0       
  special bond factors coul:  0        0        0       
     4 = max # of 1-2 neighbors
     4 = max # of 1-3 neighbors
     8 = max # of 1-4 neighbors
    12 = max # of special neighbors
  special bonds CPU = 34.141 seconds
  read_data CPU = 98.586 seconds
>>> is_restart = 0
>>> Previous    # of timesteps: 0
>>> Current     # of timesteps: 150000
>>> Cumulative  # of timesteps: 150000
101759 atoms in group polymer
493970 atoms in group solvent
63221 atoms in group support
63221 atoms in group piston
595729 atoms in group mobile
228201 atoms in group polymer_and_support
Finding 1-2 1-3 1-4 neighbors ...
  special bond factors lj:    0        1        1       
  special bond factors coul:  0        1        1       
     4 = max # of 1-2 neighbors
    12 = max # of special neighbors
  special bonds CPU = 14.763 seconds
WARNING: Using 'neigh_modify every 1 delay 0 check yes' setting during minimization (src/src/min.cpp:188)
Neighbor list info ...
  update every 1 steps, delay 0 steps, check yes
  max neighbors/atom: 2000, page size: 100000
  master list distance cutoff = 2.8
  ghost atom cutoff = 5
  binsize = 1.4, bins = 48 48 81
  1 neighbor lists, perpetual/occasional/extra = 1 0 0
  (1) pair lj/cut, perpetual
      attributes: half, newton on
      pair build: half/bin/newton
      stencil: half/bin/3d/newton
      bin: standard
Setting up cg style minimization ...
  Unit style    : lj
  Current step  : 0
Per MPI rank memory allocation (min/avg/max) = 19.57 | 22.87 | 29.19 Mbytes
Step Temp E_pair E_mol TotEng Press 
       0            0 3.000002e+19    1615.3881 3.000002e+19 1.7543678e+20 
