======================================
Working directory: /jet/home/dpollard/Documents/lammps_runs/slab_with_support_slab_support_5beads_tall_3_1.0_1.05_20260212_195401
Trajectory directory (scratch): /ocean/projects/chm250028p/dpollard/lammps_trajectories/slab_with_support_slab_support_5beads_tall_3_1.0_1.05_20260212_195401
======================================
Running LAMMPS in slab_with_support with:
  dataname=slab_support_5beads_tall_3
  epsSS=1.0, epsSP=1.05
  nsteps=100000, oldsteps=0, totsteps=100000
SLURM tasks per node: 120
SLURM CPUs per task: 1
SLURM_GPUS_ON_NODE: 
GPUs allocated: 
Running CPU-only with 360 tasks
LAMMPS (22 Jul 2025)
OMP_NUM_THREADS environment is not set. Defaulting to 1 thread.
  using 1 OpenMP thread(s) per MPI task
using multi-threaded neighbor list subroutines
Reading data file ...
  orthogonal box = (0 0 0) to (69.6 69.6 100.8)
  6 by 6 by 10 MPI processor grid
  reading atoms ...
  758308 atoms
  scanning bonds ...
  3 = max bonds/atom
  orthogonal box = (0 0 0) to (69.6 69.6 100.8)
  6 by 6 by 10 MPI processor grid
  reading bonds ...
  147456 bonds
Finding 1-2 1-3 1-4 neighbors ...
  special bond factors lj:    0        0        0       
  special bond factors coul:  0        0        0       
     4 = max # of 1-2 neighbors
     4 = max # of 1-3 neighbors
     8 = max # of 1-4 neighbors
    12 = max # of special neighbors
  special bonds CPU = 1.774 seconds
  read_data CPU = 7.569 seconds
>>> is_restart = 0
>>> Previous    # of timesteps: 0
>>> Current     # of timesteps: 100000
>>> Cumulative  # of timesteps: 100000
130121 atoms in group polymer
488291 atoms in group solvent
69948 atoms in group support
69948 atoms in group piston
618412 atoms in group mobile
270017 atoms in group polymer_and_support
Finding 1-2 1-3 1-4 neighbors ...
  special bond factors lj:    0        1        1       
  special bond factors coul:  0        1        1       
     4 = max # of 1-2 neighbors
    12 = max # of special neighbors
  special bonds CPU = 0.056 seconds
Generated 0 of 10 mixed pair_coeff terms from geometric mixing rule
Last active /omp style is bond_style fene/omp
Neighbor list info ...
  update: every = 1 steps, delay = 0 steps, check = yes
  max neighbors/atom: 2000, page size: 100000
  master list distance cutoff = 2.8
  ghost atom cutoff = 5
  binsize = 1.4, bins = 50 50 72
  1 neighbor lists, perpetual/occasional/extra = 1 0 0
  (1) pair lj/cut/omp, perpetual
      attributes: half, newton on, omp
      pair build: half/bin/newton/omp
      stencil: half/bin/3d
      bin: standard
Setting up cg style minimization ...
  Unit style    : lj
  Current step  : 0
Per MPI rank memory allocation (min/avg/max) = 11.45 | 13.95 | 20.61 Mbytes
   Step          Temp          E_pair         E_mol          TotEng         Press     
         0   0              3.8275784e+19  17783.422      3.8275784e+19  2.3776653e+20
WARNING: FENE bond too long: 1317 69172 69173 1.9058974 (src/OPENMP/bond_fene_omp.cpp:116)
WARNING: FENE bond too long: 1326 69172 69173 1.9093926 (src/OPENMP/bond_fene_omp.cpp:116)
WARNING: FENE bond too long: 1329 69172 69173 1.9118645 (src/OPENMP/bond_fene_omp.cpp:116)
WARNING: FENE bond too long: 1563 69172 69173 1.9356118 (src/OPENMP/bond_fene_omp.cpp:116)
WARNING: FENE bond too long: 1567 69172 69173 2.0712601 (src/OPENMP/bond_fene_omp.cpp:116)
WARNING: FENE bond too long: 1568 69172 69173 1.9457609 (src/OPENMP/bond_fene_omp.cpp:116)
WARNING: FENE bond too long: 1628 80638 80639 2.0778821 (src/OPENMP/bond_fene_omp.cpp:116)
WARNING: FENE bond too long: 1628 10533 80586 1.9228199 (src/OPENMP/bond_fene_omp.cpp:116)
WARNING: FENE bond too long: 1629 80638 80639 1.9484819 (src/OPENMP/bond_fene_omp.cpp:116)
WARNING: FENE bond too long: 1629 10533 80586 1.9298232 (src/OPENMP/bond_fene_omp.cpp:116)
WARNING: FENE bond too long: 1653 80638 80639 1.9440174 (src/OPENMP/bond_fene_omp.cpp:116)
WARNING: FENE bond too long: 1678 10533 80586 1.9178698 (src/OPENMP/bond_fene_omp.cpp:116)
WARNING: FENE bond too long: 1719 15031 106572 1.9404579 (src/OPENMP/bond_fene_omp.cpp:116)
WARNING: FENE bond too long: 1785 52211 5633 1.9416532 (src/OPENMP/bond_fene_omp.cpp:116)
WARNING: FENE bond too long: 1786 52211 5633 1.9360205 (src/OPENMP/bond_fene_omp.cpp:116)
WARNING: FENE bond too long: 1791 52211 5633 1.9199522 (src/OPENMP/bond_fene_omp.cpp:116)
WARNING: FENE bond too long: 1794 52211 5633 1.9053965 (src/OPENMP/bond_fene_omp.cpp:116)
WARNING: FENE bond too long: 1833 52211 5633 1.915721 (src/OPENMP/bond_fene_omp.cpp:116)
WARNING: FENE bond too long: 1840 52211 5633 1.9804686 (src/OPENMP/bond_fene_omp.cpp:116)
WARNING: FENE bond too long: 1840 52211 5633 1.9620703 (src/OPENMP/bond_fene_omp.cpp:116)
WARNING: FENE bond too long: 1841 52211 5633 1.9364644 (src/OPENMP/bond_fene_omp.cpp:116)
WARNING: FENE bond too long: 1861 52211 5633 1.9005786 (src/OPENMP/bond_fene_omp.cpp:116)
WARNING: FENE bond too long: 1906 52211 5633 1.9364923 (src/OPENMP/bond_fene_omp.cpp:116)
WARNING: FENE bond too long: 1919 52211 5633 1.9241351 (src/OPENMP/bond_fene_omp.cpp:116)
WARNING: FENE bond too long: 1952 52211 5633 1.9417648 (src/OPENMP/bond_fene_omp.cpp:116)
WARNING: FENE bond too long: 1961 52211 5633 1.902266 (src/OPENMP/bond_fene_omp.cpp:116)
WARNING: FENE bond too long: 1981 52211 5633 1.9134186 (src/OPENMP/bond_fene_omp.cpp:116)
WARNING: FENE bond too long: 2019 52211 5633 1.9256788 (src/OPENMP/bond_fene_omp.cpp:116)
WARNING: FENE bond too long: 2020 52211 5633 2.0042326 (src/OPENMP/bond_fene_omp.cpp:116)
WARNING: FENE bond too long: 2021 52211 5633 1.9611562 (src/OPENMP/bond_fene_omp.cpp:116)
WARNING: FENE bond too long: 2036 52211 5633 1.9070234 (src/OPENMP/bond_fene_omp.cpp:116)
WARNING: FENE bond too long: 2085 52211 5633 1.9280152 (src/OPENMP/bond_fene_omp.cpp:116)
WARNING: FENE bond too long: 2103 52211 5633 1.9139854 (src/OPENMP/bond_fene_omp.cpp:116)
WARNING: FENE bond too long: 2103 52211 5633 1.9105548 (src/OPENMP/bond_fene_omp.cpp:116)
WARNING: FENE bond too long: 2104 52211 5633 2.1225797 (src/OPENMP/bond_fene_omp.cpp:116)
WARNING: FENE bond too long: 2105 52211 5633 2.221519 (src/OPENMP/bond_fene_omp.cpp:116)
WARNING: FENE bond too long: 2106 52211 5633 2.0806673 (src/OPENMP/bond_fene_omp.cpp:116)
WARNING: FENE bond too long: 2106 52211 5633 2.1508822 (src/OPENMP/bond_fene_omp.cpp:116)
WARNING: FENE bond too long: 2107 52211 5633 1.9697763 (src/OPENMP/bond_fene_omp.cpp:116)
WARNING: FENE bond too long: 2153 52211 5633 1.9433272 (src/OPENMP/bond_fene_omp.cpp:116)
WARNING: FENE bond too long: 2157 52211 5633 1.9152 (src/OPENMP/bond_fene_omp.cpp:116)
WARNING: FENE bond too long: 2164 52211 5633 1.9251903 (src/OPENMP/bond_fene_omp.cpp:116)
WARNING: FENE bond too long: 2194 52211 5633 1.9629783 (src/OPENMP/bond_fene_omp.cpp:116)
WARNING: FENE bond too long: 2198 52211 5633 1.9287565 (src/OPENMP/bond_fene_omp.cpp:116)
WARNING: FENE bond too long: 2235 52211 5633 1.9579849 (src/OPENMP/bond_fene_omp.cpp:116)
WARNING: FENE bond too long: 2243 52211 5633 1.9587256 (src/OPENMP/bond_fene_omp.cpp:116)
WARNING: FENE bond too long: 2244 52211 5633 1.9383783 (src/OPENMP/bond_fene_omp.cpp:116)
WARNING: FENE bond too long: 2250 52211 5633 1.9049127 (src/OPENMP/bond_fene_omp.cpp:116)
WARNING: FENE bond too long: 2253 52211 5633 1.908312 (src/OPENMP/bond_fene_omp.cpp:116)
WARNING: FENE bond too long: 2261 52211 5633 1.9090996 (src/OPENMP/bond_fene_omp.cpp:116)
WARNING: FENE bond too long: 2262 52211 5633 1.9824972 (src/OPENMP/bond_fene_omp.cpp:116)
WARNING: FENE bond too long: 2267 52211 5633 1.9514574 (src/OPENMP/bond_fene_omp.cpp:116)
WARNING: FENE bond too long: 2279 52211 5633 1.9969276 (src/OPENMP/bond_fene_omp.cpp:116)
WARNING: FENE bond too long: 2280 52211 5633 2.1048603 (src/OPENMP/bond_fene_omp.cpp:116)
WARNING: FENE bond too long: 2280 52211 5633 2.0886479 (src/OPENMP/bond_fene_omp.cpp:116)
WARNING: FENE bond too long: 2281 52211 5633 2.1447081 (src/OPENMP/bond_fene_omp.cpp:116)
WARNING: FENE bond too long: 2282 52211 5633 2.0643902 (src/OPENMP/bond_fene_omp.cpp:116)
WARNING: FENE bond too long: 2283 52211 5633 1.9031308 (src/OPENMP/bond_fene_omp.cpp:116)
WARNING: FENE bond too long: 2294 52211 5633 1.9270299 (src/OPENMP/bond_fene_omp.cpp:116)
WARNING: FENE bond too long: 2299 52211 5633 1.9039534 (src/OPENMP/bond_fene_omp.cpp:116)
WARNING: FENE bond too long: 2312 52211 5633 1.9825046 (src/OPENMP/bond_fene_omp.cpp:116)
WARNING: FENE bond too long: 2313 52211 5633 1.8992313 (src/OPENMP/bond_fene_omp.cpp:116)
WARNING: FENE bond too long: 2324 52211 5633 1.9123471 (src/OPENMP/bond_fene_omp.cpp:116)
WARNING: FENE bond too long: 2348 52211 5633 1.9099699 (src/OPENMP/bond_fene_omp.cpp:116)
WARNING: FENE bond too long: 2354 52211 5633 1.9351976 (src/OPENMP/bond_fene_omp.cpp:116)
WARNING: FENE bond too long: 2369 52211 5633 1.9271061 (src/OPENMP/bond_fene_omp.cpp:116)
WARNING: FENE bond too long: 2372 52211 5633 1.9597836 (src/OPENMP/bond_fene_omp.cpp:116)
WARNING: FENE bond too long: 2378 52211 5633 1.9318086 (src/OPENMP/bond_fene_omp.cpp:116)
WARNING: FENE bond too long: 2382 52211 5633 1.9380073 (src/OPENMP/bond_fene_omp.cpp:116)
WARNING: FENE bond too long: 2392 52211 5633 1.95438 (src/OPENMP/bond_fene_omp.cpp:116)
WARNING: FENE bond too long: 2400 52211 5633 1.9367755 (src/OPENMP/bond_fene_omp.cpp:116)
WARNING: FENE bond too long: 2406 52211 5633 1.8998084 (src/OPENMP/bond_fene_omp.cpp:116)
WARNING: FENE bond too long: 2414 52211 5633 1.9066498 (src/OPENMP/bond_fene_omp.cpp:116)
WARNING: FENE bond too long: 2419 52211 5633 1.9257687 (src/OPENMP/bond_fene_omp.cpp:116)
WARNING: FENE bond too long: 2420 52211 5633 1.9322138 (src/OPENMP/bond_fene_omp.cpp:116)
WARNING: FENE bond too long: 2422 52211 5633 1.9136673 (src/OPENMP/bond_fene_omp.cpp:116)
WARNING: FENE bond too long: 2433 52211 5633 1.8984593 (src/OPENMP/bond_fene_omp.cpp:116)
WARNING: FENE bond too long: 2443 52211 5633 1.932952 (src/OPENMP/bond_fene_omp.cpp:116)
WARNING: FENE bond too long: 2461 52211 5633 1.9773017 (src/OPENMP/bond_fene_omp.cpp:116)
WARNING: FENE bond too long: 2471 52211 5633 1.9146079 (src/OPENMP/bond_fene_omp.cpp:116)
WARNING: FENE bond too long: 2472 52211 5633 1.9330937 (src/OPENMP/bond_fene_omp.cpp:116)
WARNING: FENE bond too long: 2480 52211 5633 1.9313479 (src/OPENMP/bond_fene_omp.cpp:116)
WARNING: FENE bond too long: 2481 102198 102199 1.9476359 (src/OPENMP/bond_fene_omp.cpp:116)
WARNING: FENE bond too long: 2493 52211 5633 1.9537322 (src/OPENMP/bond_fene_omp.cpp:116)
WARNING: FENE bond too long: 2493 52211 5633 1.932028 (src/OPENMP/bond_fene_omp.cpp:116)
WARNING: FENE bond too long: 2504 52211 5633 1.9661005 (src/OPENMP/bond_fene_omp.cpp:116)
WARNING: FENE bond too long: 2505 52211 5633 1.9437942 (src/OPENMP/bond_fene_omp.cpp:116)
WARNING: FENE bond too long: 2509 52211 5633 1.9860492 (src/OPENMP/bond_fene_omp.cpp:116)
WARNING: FENE bond too long: 2513 52211 5633 1.9403229 (src/OPENMP/bond_fene_omp.cpp:116)
WARNING: FENE bond too long: 2522 52211 5633 1.912169 (src/OPENMP/bond_fene_omp.cpp:116)
WARNING: FENE bond too long: 2522 52211 5633 1.9095606 (src/OPENMP/bond_fene_omp.cpp:116)
WARNING: FENE bond too long: 2550 52211 5633 1.9749715 (src/OPENMP/bond_fene_omp.cpp:116)
WARNING: FENE bond too long: 2550 52211 5633 1.970267 (src/OPENMP/bond_fene_omp.cpp:116)
WARNING: FENE bond too long: 2551 52211 5633 2.0300303 (src/OPENMP/bond_fene_omp.cpp:116)
WARNING: FENE bond too long: 2555 52211 5633 1.9407561 (src/OPENMP/bond_fene_omp.cpp:116)
WARNING: FENE bond too long: 2555 52211 5633 1.9335069 (src/OPENMP/bond_fene_omp.cpp:116)
WARNING: FENE bond too long: 2560 52211 5633 1.9052557 (src/OPENMP/bond_fene_omp.cpp:116)
WARNING: FENE bond too long: 2572 52211 5633 1.9372927 (src/OPENMP/bond_fene_omp.cpp:116)
      3543   0             -4.2272198      3.5830139     -0.64420583     32.45258     
Loop time of 39.4482 on 360 procs for 3543 steps with 758308 atoms

99.4% CPU use with 360 MPI tasks x 1 OpenMP threads

Minimization stats:
  Stopping criterion = energy tolerance
  Energy initial, next-to-last, final = 
    3.82757840481364e+19 -0.644143039820833 -0.644205828176991
  Force two-norm initial, final = 3.9606024e+28 343.4192
  Force max component initial, final = 1.8345142e+28 104.33439
  Final line search alpha, max atom move = 0.00071443123 0.074539748
  Iterations, force evaluations = 3543 3970

MPI task timing breakdown:
Section |  min time  |  avg time  |  max time  |%varavg| %total
---------------------------------------------------------------
Pair    | 5.5472     | 8.6673     | 16.576     |  73.0 | 21.97
Bond    | 0.0033184  | 0.074304   | 0.20357    |  26.3 |  0.19
Neigh   | 13.963     | 14.48      | 14.985     |   7.4 | 36.71
Comm    | 4.2516     | 8.27       | 15.298     |  73.8 | 20.96
Output  | 0          | 0          | 0          |   0.0 |  0.00
Modify  | 0.056621   | 0.12604    | 0.22771    |   9.6 |  0.32
Other   |            | 7.831      |            |       | 19.85

Nlocal:        2106.41 ave        3736 max        1632 min
Histogram: 288 0 0 0 0 0 0 0 0 72
Nghost:        12466.7 ave       21936 max        9675 min
Histogram: 288 0 0 0 0 0 0 0 0 72
Neighs:         101705 ave      112957 max       90580 min
Histogram: 17 50 40 19 28 48 57 81 12 8

Total # of neighbors = 36613735
Ave neighs/atom = 48.283461
Ave special neighs/atom = 0.38890794
Neighbor list builds = 802
Dangerous builds = 25
Generated 0 of 10 mixed pair_coeff terms from geometric mixing rule
Last active /omp style is bond_style fene/omp
Setting up Verlet run ...
  Unit style    : lj
  Current step  : 0
  Time step     : 0.001
Per MPI rank memory allocation (min/avg/max) = 10.36 | 12.7 | 18.36 Mbytes
   Step          Temp          PotEng         KinEng         TotEng         Press          Volume           Lx             Ly             Lz      
         0   0.081551535   -0.64420583     0.12232714    -0.52187869     32.579228      488291.33      69.6           69.6           100.8        
      1000   0.54006366     0.12519726     0.81009442     0.93529168     38.728534      488291.33      69.6           69.6           100.8        
Loop time of 3.2282 on 360 procs for 1000 steps with 758308 atoms

Performance: 26764.142 tau/day, 309.770 timesteps/s, 234.901 Matom-step/s
99.4% CPU use with 360 MPI tasks x 1 OpenMP threads

MPI task timing breakdown:
Section |  min time  |  avg time  |  max time  |%varavg| %total
---------------------------------------------------------------
Pair    | 1.1086     | 1.2557     | 1.4136     |   6.0 | 38.90
Bond    | 0.0006037  | 0.0060589  | 0.013668   |   6.0 |  0.19
Neigh   | 0.32665    | 0.33821    | 0.34925    |   1.1 | 10.48
Comm    | 0.90337    | 1.1333     | 1.5723     |  15.0 | 35.11
Output  | 8.9919e-05 | 0.0011165  | 0.0016574  |   1.3 |  0.03
Modify  | 0.11316    | 0.12955    | 0.15779    |   2.4 |  4.01
Other   |            | 0.3643     |            |       | 11.29

Nlocal:        2106.41 ave        3730 max        1632 min
Histogram: 288 0 0 0 0 0 0 0 0 72
Nghost:        12465.7 ave       21949 max        9730 min
Histogram: 288 0 0 0 0 0 0 0 0 72
Neighs:         101545 ave      112675 max       91586 min
Histogram: 20 53 35 24 41 43 73 54 10 7

Total # of neighbors = 36556156
Ave neighs/atom = 48.20753
Ave special neighs/atom = 0.38890794
Neighbor list builds = 19
Dangerous builds = 0
Generated 0 of 10 mixed pair_coeff terms from geometric mixing rule
Last active /omp style is bond_style fene/omp
Setting up Verlet run ...
  Unit style    : lj
  Current step  : 0
  Time step     : 0.005
Per MPI rank memory allocation (min/avg/max) = 10.36 | 12.71 | 18.36 Mbytes
   Step          Temp          PotEng         KinEng         TotEng         Press          Volume           Lx             Ly             Lz      
         0   0.54006366     0.12519726     0.81009442     0.93529168     38.728534      488291.33      69.6           69.6           100.8        
      1000   0.7755528     -0.83201264     1.1633277      0.33131503     1.8399542      716749.78      79.0992        79.0992        114.55746    
Loop time of 6.43769 on 360 procs for 1000 steps with 758308 atoms

Performance: 67104.782 tau/day, 155.335 timesteps/s, 117.792 Matom-step/s
99.3% CPU use with 360 MPI tasks x 1 OpenMP threads

MPI task timing breakdown:
Section |  min time  |  avg time  |  max time  |%varavg| %total
---------------------------------------------------------------
Pair    | 0.85743    | 0.96506    | 1.1477     |   5.6 | 14.99
Bond    | 0.0010205  | 0.011905   | 0.042647   |   8.5 |  0.18
Neigh   | 3.4256     | 3.5423     | 3.6556     |   3.8 | 55.02
Comm    | 0.98286    | 1.2322     | 1.6397     |  17.0 | 19.14
Output  | 0.00010196 | 0.00011722 | 0.00016182 |   0.0 |  0.00
Modify  | 0.38489    | 0.64172    | 0.84537    |  16.7 |  9.97
Other   |            | 0.04443    |            |       |  0.69

Nlocal:        2106.41 ave        3770 max        1640 min
Histogram: 288 0 0 0 0 0 0 0 4 68
Nghost:        10237.6 ave       18348 max        7930 min
Histogram: 288 0 0 0 0 0 0 0 0 72
Neighs:        66022.7 ave       74663 max       60321 min
Histogram: 20 66 49 64 49 24 52 21 12 3

Total # of neighbors = 23768160
Ave neighs/atom = 31.343676
Ave special neighs/atom = 0.38890794
Neighbor list builds = 230
Dangerous builds = 0
Generated 0 of 10 mixed pair_coeff terms from geometric mixing rule
Last active /omp style is bond_style fene/omp
Setting up Verlet run ...
  Unit style    : lj
  Current step  : 1000
  Time step     : 0.005
Per MPI rank memory allocation (min/avg/max) = 10.36 | 12.71 | 18.37 Mbytes
   Step          Temp          PotEng         KinEng         TotEng         Press          Volume           Lx             Ly             Lz      
      1000   0.7755528     -0.83201264     1.1633277      0.33131503     1.8399542      716749.78      79.0992        79.0992        114.55746    
      5000   0.8472444     -0.37370851     1.2708649      0.89715641     1.0070435      791182.43      81.747619      81.747619      118.3931     
     10000   0.85258202    -0.36315256     1.2788713      0.91571878     1.0056807      793044.14      81.811688      81.811688      118.48589    
     15000   0.85378706    -0.35804295     1.2806789      0.92263595     1.0218078      793869.84      81.840072      81.840072      118.527      
     20000   0.85778975    -0.35039357     1.2866829      0.93628935     1.0039612      795043.99      81.8804        81.8804        118.58541    
     25000   0.8602013     -0.34048979     1.2903002      0.94981046     0.99242646     796749.19      81.938897      81.938897      118.67013    
     30000   0.8603108     -0.33669027     1.2904645      0.95377423     1.0037003      797097.03      81.950819      81.950819      118.68739    
     35000   0.8648103     -0.33704605     1.2972137      0.96016769     0.99405405     797413.56      81.961665      81.961665      118.7031     
     40000   0.86275757    -0.32923304     1.2941346      0.96490161     0.99369779     798442.69      81.99691       81.99691       118.75415    
     45000   0.86466679    -0.32720162     1.2969985      0.96979685     1.0014522      798573.8       82.001398      82.001398      118.76064    
     50000   0.86768662    -0.32271795     1.3015282      0.97881026     1.0062185      799185.96      82.022346      82.022346      118.79098    
     55000   0.86683912    -0.315506       1.300257       0.98475097     0.99120226     800232.99      82.05815       82.05815       118.84284    
     60000   0.86860062    -0.3152229      1.3028992      0.98767632     1.0057705      800436.41      82.065102      82.065102      118.85291    
     65000   0.86863629    -0.3147171      1.3029527      0.98823562     1.0077368      800305.64      82.060633      82.060633      118.84643    
     70000   0.87105042    -0.3092609      1.3065739      0.99731301     1.0078091      800901.3       82.080987      82.080987      118.87591    
     75000   0.87128429    -0.31051263     1.3069247      0.99641208     1.0001311      801105.12      82.087949      82.087949      118.886      
     80000   0.87276415    -0.30492154     1.3091445      1.004223       1.0131379      801835.09      82.112874      82.112874      118.92209    
     85000   0.87317508    -0.3058249      1.3097609      1.003936       0.98859704     802275.24      82.127897      82.127897      118.94385    
     90000   0.87424405    -0.30245159     1.3113643      1.0089128      1.0015851      802555.47      82.137457      82.137457      118.9577     
     95000   0.87450008    -0.2988852      1.3117484      1.0128632      0.99331644     802804.82      82.145963      82.145963      118.97002    
    100000   0.87589726    -0.29754511     1.3138442      1.016299       0.98999025     803194.04      82.159236      82.159236      118.98924    
    101000   0.874108      -0.29892831     1.3111603      1.012232       0.99238497     803070.66      82.155029      82.155029      118.98315    
Loop time of 467.607 on 360 procs for 100000 steps with 758308 atoms

Performance: 92385.186 tau/day, 213.855 timesteps/s, 162.168 Matom-step/s
99.4% CPU use with 360 MPI tasks x 1 OpenMP threads

MPI task timing breakdown:
Section |  min time  |  avg time  |  max time  |%varavg| %total
---------------------------------------------------------------
Pair    | 62.556     | 74.026     | 89.154     |  91.2 | 15.83
Bond    | 0.097126   | 1.1465     | 3.9785     |  88.7 |  0.25
Neigh   | 213.38     | 221.48     | 229.41     |  31.7 | 47.36
Comm    | 86.921     | 109.83     | 143.81     | 143.8 | 23.49
Output  | 0.084872   | 0.56717    | 1.5789     |  72.3 |  0.12
Modify  | 35.227     | 56.197     | 80.548     | 149.8 | 12.02
Other   |            | 4.361      |            |       |  0.93

Nlocal:        2106.41 ave        3830 max        1589 min
Histogram: 192 96 0 0 0 0 0 0 38 34
Nghost:        9718.98 ave       17814 max        7226 min
Histogram: 213 75 0 0 0 0 0 0 0 72
Neighs:        59322.1 ave       71625 max       50655 min
Histogram: 50 79 32 82 5 0 7 16 62 27

Total # of neighbors = 21355955
Ave neighs/atom = 28.16264
Ave special neighs/atom = 0.38890794
Neighbor list builds = 17011
Dangerous builds = 0
System init for write_restart ...
Generated 0 of 10 mixed pair_coeff terms from geometric mixing rule
Last active /omp style is bond_style fene/omp
System init for write_data ...
Generated 0 of 10 mixed pair_coeff terms from geometric mixing rule
Last active /omp style is bond_style fene/omp
WARNING: Not all mixed pair coeffs generated from mixing. Use write_data with 'pair ij' option to store all pair coeffs. (src/write_data.cpp:364)
ERROR: Unknown command: a (src/input.cpp:314)
Last input line: a
======================================
Running post-processing...
======================================
Generating convergence plot...
Plot saved to ./output_plots/convergence_plots/slab_support_5beads_tall_3_1.0_1.05_100000_convergence.png
Generating stress profiles...
No stress data found for slab_support_5beads_tall_3_1.0_1.05_100000, skipping stress plots
No volume data found for slab_support_5beads_tall_3_1.0_1.05_100000, skipping volume fraction plots
Generating piston plots...
Error: Piston position file not found: ./output_files/piston_data/piston_position_slab_support_5beads_tall_3_1.0_1.05_100000.dat
Generating computational efficiency plot...
Found data file: ./data_files/slab_support_5beads_tall_3.data
Mobile atoms: 618410
Entry 'slab_support_5beads_tall_3_1.0_1.05_100000' already exists in tracking file, skipping.
Tracking info written to /jet/home/dpollard/Documents/lammps_work/tracking.txt
Saved /jet/home/dpollard/Documents/lammps_work/time_vs_atoms.png
Saved /jet/home/dpollard/Documents/lammps_work/time_vs_timesteps.png
======================================
Done! Results are in: /jet/home/dpollard/Documents/lammps_runs/slab_with_support_slab_support_5beads_tall_3_1.0_1.05_20260212_195401
======================================
