======================================
Working directory: /jet/home/dpollard/Documents/lammps_runs/slab_with_support_slab_support_tall_angle_8_1.0_1.0_20260210_151257
Trajectory directory (scratch): /ocean/projects/chm250028p/dpollard/lammps_trajectories/slab_with_support_slab_support_tall_angle_8_1.0_1.0_20260210_151257
======================================
Running LAMMPS in slab_with_support with:
  dataname=slab_support_tall_angle_8
  epsSS=1.0, epsSP=1.0
  nsteps=1000000, oldsteps=0, totsteps=1000000
SLURM tasks per node: 120
SLURM CPUs per task: 1
SLURM_GPUS_ON_NODE: 
GPUs allocated: 
Running CPU-only with 600 tasks
LAMMPS (22 Jul 2025)
OMP_NUM_THREADS environment is not set. Defaulting to 1 thread.
  using 1 OpenMP thread(s) per MPI task
using multi-threaded neighbor list subroutines
Reading data file ...
  orthogonal box = (0 0 0) to (70 70 113.4)
  6 by 10 by 10 MPI processor grid
  reading atoms ...
  799575 atoms
  scanning bonds ...
  3 = max bonds/atom
  scanning angles ...
  6 = max angles/atom
  orthogonal box = (0 0 0) to (70 70 113.4)
  6 by 10 by 10 MPI processor grid
  reading bonds ...
  115200 bonds
  reading angles ...
  169196 angles
Finding 1-2 1-3 1-4 neighbors ...
  special bond factors lj:    0        0        0       
  special bond factors coul:  0        0        0       
     4 = max # of 1-2 neighbors
     4 = max # of 1-3 neighbors
     8 = max # of 1-4 neighbors
    12 = max # of special neighbors
  special bonds CPU = 0.245 seconds
  read_data CPU = 7.738 seconds
>>> is_restart = 0
>>> Previous    # of timesteps: 0
>>> Current     # of timesteps: 1000000
>>> Cumulative  # of timesteps: 1000000
101759 atoms in group polymer
555660 atoms in group solvent
71078 atoms in group support
71078 atoms in group piston
657419 atoms in group mobile
243915 atoms in group polymer_and_support
Finding 1-2 1-3 1-4 neighbors ...
  special bond factors lj:    0        1        1       
  special bond factors coul:  0        1        1       
     4 = max # of 1-2 neighbors
    12 = max # of special neighbors
  special bonds CPU = 0.051 seconds
Generated 0 of 10 mixed pair_coeff terms from geometric mixing rule
Last active /omp style is angle_style harmonic
Neighbor list info ...
  update: every = 1 steps, delay = 0 steps, check = yes
  max neighbors/atom: 2000, page size: 100000
  master list distance cutoff = 2.8
  ghost atom cutoff = 5
  binsize = 1.4, bins = 50 50 81
  1 neighbor lists, perpetual/occasional/extra = 1 0 0
  (1) pair lj/cut/omp, perpetual
      attributes: half, newton on, omp
      pair build: half/bin/newton/omp
      stencil: half/bin/3d
      bin: standard
Setting up cg style minimization ...
  Unit style    : lj
  Current step  : 0
Per MPI rank memory allocation (min/avg/max) = 12.97 | 15.14 | 23.15 Mbytes
   Step          Temp          E_pair         E_mol          TotEng         Press     
         0   0              1.6474473e+19  1460.8282      1.6474473e+19  9.4824725e+19
      1464   0             -4.8782841      9.256611       4.3783269      19.882896    
Loop time of 9.16838 on 600 procs for 1464 steps with 799575 atoms

99.3% CPU use with 600 MPI tasks x 1 OpenMP threads

Minimization stats:
  Stopping criterion = energy tolerance
  Energy initial, next-to-last, final = 
    1.64744728198279e+19   4.37870144941828   4.37832689787007
  Force two-norm initial, final = 2.3854327e+28 1356.0726
  Force max component initial, final = 1.1660166e+28 345.24254
  Final line search alpha, max atom move = 0.0002097058 0.072399365
  Iterations, force evaluations = 1464 1587

MPI task timing breakdown:
Section |  min time  |  avg time  |  max time  |%varavg| %total
---------------------------------------------------------------
Pair    | 1.3118     | 2.0414     | 3.1272     |  37.2 | 22.27
Bond    | 0.0035989  | 0.042511   | 0.11625    |  20.2 |  0.46
Neigh   | 3.6003     | 3.8104     | 3.9866     |   4.5 | 41.56
Comm    | 1.5093     | 2.2447     | 3.0644     |  25.2 | 24.48
Output  | 0          | 0          | 0          |   0.0 |  0.00
Modify  | 0.016041   | 0.030627   | 0.063713   |   5.5 |  0.33
Other   |            | 0.9987     |            |       | 10.89

Nlocal:        1332.62 ave        2371 max         929 min
Histogram: 155 286 39 0 0 0 0 0 76 44
Nghost:        10113.9 ave       18082 max        7074 min
Histogram: 183 289 8 0 0 0 0 0 24 96
Neighs:        60123.4 ave       78670 max       41823 min
Histogram: 26 58 60 88 72 87 60 60 58 31

Total # of neighbors = 36074011
Ave neighs/atom = 45.116482
Ave special neighs/atom = 0.28815308
Neighbor list builds = 362
Dangerous builds = 14
Generated 0 of 10 mixed pair_coeff terms from geometric mixing rule
Last active /omp style is angle_style harmonic
Setting up Verlet run ...
  Unit style    : lj
  Current step  : 0
  Time step     : 0.001
Per MPI rank memory allocation (min/avg/max) = 11.9 | 13.83 | 20.91 Mbytes
   Step          Temp          PotEng         KinEng         TotEng         Press          Volume           Lx             Ly             Lz      
         0   0.082221033    4.3783269      0.12333139     4.5016583      20.001209      555660         70             70             113.4        
      1000   0.60118954     4.9655653      0.90178318     5.8673485      24.49343       555660         70             70             113.4        
Loop time of 2.38005 on 600 procs for 1000 steps with 799575 atoms

Performance: 36301.811 tau/day, 420.160 timesteps/s, 335.949 Matom-step/s
99.4% CPU use with 600 MPI tasks x 1 OpenMP threads

MPI task timing breakdown:
Section |  min time  |  avg time  |  max time  |%varavg| %total
---------------------------------------------------------------
Pair    | 0.50655    | 0.74081    | 0.94804    |  11.8 | 31.13
Bond    | 0.0016541  | 0.016143   | 0.040707   |  11.3 |  0.68
Neigh   | 0.22006    | 0.2327     | 0.24417    |   1.2 |  9.78
Comm    | 0.76573    | 0.97163    | 1.3351     |  13.1 | 40.82
Output  | 0.00011084 | 0.00071457 | 0.0012677  |   0.0 |  0.03
Modify  | 0.066955   | 0.084498   | 0.10231    |   2.2 |  3.55
Other   |            | 0.3335     |            |       | 14.01

Nlocal:        1332.62 ave        2345 max         957 min
Histogram: 179 301 0 0 0 0 0 0 48 72
Nghost:        10113.8 ave       17899 max        7268 min
Histogram: 229 251 0 0 0 0 0 0 0 120
Neighs:        59926.9 ave       72278 max       43665 min
Histogram: 12 27 54 64 77 74 91 96 63 42

Total # of neighbors = 35956129
Ave neighs/atom = 44.969051
Ave special neighs/atom = 0.28815308
Neighbor list builds = 22
Dangerous builds = 0
Generated 0 of 10 mixed pair_coeff terms from geometric mixing rule
Last active /omp style is angle_style harmonic
Setting up Verlet run ...
  Unit style    : lj
  Current step  : 0
  Time step     : 0.005
Per MPI rank memory allocation (min/avg/max) = 11.9 | 13.84 | 20.91 Mbytes
   Step          Temp          PotEng         KinEng         TotEng         Press          Volume           Lx             Ly             Lz      
         0   0.60118954     4.9655653      0.90178318     5.8673485      24.49343       555660         70             70             113.4        
      1000   0.79314041     4.7882906      1.1897091      5.9779997      1.6298559      776969.32      78.276179      78.276179      126.80741    
Loop time of 4.34992 on 600 procs for 1000 steps with 799575 atoms

Performance: 99312.099 tau/day, 229.889 timesteps/s, 183.814 Matom-step/s
99.2% CPU use with 600 MPI tasks x 1 OpenMP threads

MPI task timing breakdown:
Section |  min time  |  avg time  |  max time  |%varavg| %total
---------------------------------------------------------------
Pair    | 0.49158    | 0.59067    | 0.66326    |   4.7 | 13.58
Bond    | 0.002567   | 0.025254   | 0.06192    |  12.9 |  0.58
Neigh   | 2.1209     | 2.2232     | 2.3186     |   3.4 | 51.11
Comm    | 0.81737    | 1.0611     | 1.3612     |  12.8 | 24.39
Output  | 0.00010604 | 0.00012361 | 0.00014373 |   0.0 |  0.00
Modify  | 0.26865    | 0.41704    | 0.61484    |  12.1 |  9.59
Other   |            | 0.03258    |            |       |  0.75

Nlocal:        1332.62 ave        2333 max        1032 min
Histogram: 478 2 0 0 0 0 0 0 10 110
Nghost:        8470.64 ave       15237 max        6505 min
Histogram: 480 0 0 0 0 0 0 0 0 120
Neighs:        41335.5 ave       46148 max       35924 min
Histogram: 5 46 86 63 77 64 63 115 68 13

Total # of neighbors = 24801315
Ave neighs/atom = 31.018122
Ave special neighs/atom = 0.28815308
Neighbor list builds = 229
Dangerous builds = 0
Generated 0 of 10 mixed pair_coeff terms from geometric mixing rule
Last active /omp style is angle_style harmonic
Setting up Verlet run ...
  Unit style    : lj
  Current step  : 1000
  Time step     : 0.005
Per MPI rank memory allocation (min/avg/max) = 11.9 | 13.85 | 20.91 Mbytes
   Step          Temp          PotEng         KinEng         TotEng         Press          Volume           Lx             Ly             Lz      
      1000   0.79314041     4.7882906      1.1897091      5.9779997      1.6298559      776969.32      78.276179      78.276179      126.80741    
    100000   0.87994355     5.1922813      1.3199137      6.5121949      0.99929961     857290.23      80.885552      80.885552      131.03459    
    200000   0.88785437     5.2228208      1.3317799      6.5546007      0.97984681     862689.01      81.054989      81.054989      131.30908    
    300000   0.89486885     5.2402279      1.3423016      6.5825295      1.010074       865186.51      81.133132      81.133132      131.43567    
    400000   0.89979939     5.2496294      1.3496974      6.5993268      0.99646575     867259.64      81.197883      81.197883      131.54057    
    500000   0.90120978     5.2557266      1.351813       6.6075396      1.0023874      868207.72      81.227461      81.227461      131.58849    
    600000   0.902113       5.2617881      1.3531678      6.6149559      1.0065858      869185.29      81.257935      81.257935      131.63786    
    700000   0.90384532     5.2667767      1.3557663      6.6225429      1.0021871      870050.38      81.284885      81.284885      131.68151    
    800000   0.90569483     5.2684635      1.3585405      6.627004       1.0063387      870451.33      81.297369      81.297369      131.70174    
    900000   0.90412135     5.2716969      1.3561803      6.6278772      0.99023561     871261.2       81.322575      81.322575      131.74257    
   1000000   0.90535073     5.2718419      1.3580244      6.6298663      0.98424883     871294.65      81.323615      81.323615      131.74426    
   1001000   0.90522948     5.2703618      1.3578425      6.6282044      0.99095664     871226.71      81.321502      81.321502      131.74083    
Loop time of 3378.76 on 600 procs for 1000000 steps with 799575 atoms

Performance: 127857.414 tau/day, 295.966 timesteps/s, 236.647 Matom-step/s
99.3% CPU use with 600 MPI tasks x 1 OpenMP threads

MPI task timing breakdown:
Section |  min time  |  avg time  |  max time  |%varavg| %total
---------------------------------------------------------------
Pair    | 405        | 471.77     | 582.26     | 263.3 | 13.96
Bond    | 2.4925     | 23.765     | 88.027     | 525.7 |  0.70
Neigh   | 1399.1     | 1469.4     | 1540.6     |  93.4 | 43.49
Comm    | 692.06     | 910.96     | 1163.8     | 395.2 | 26.96
Output  | 0.030835   | 0.37686    | 0.88381    |  50.4 |  0.01
Modify  | 318.81     | 468.5      | 716.64     | 439.5 | 13.87
Other   |            | 34.02      |            |       |  1.01

Nlocal:        1332.62 ave        2345 max         998 min
Histogram: 312 168 0 0 0 0 0 0 28 92
Nghost:        7969.66 ave       14589 max        5956 min
Histogram: 379 101 0 0 0 0 0 0 0 120
Neighs:        37219.3 ave       48366 max       31290 min
Histogram: 94 256 45 13 7 16 13 57 79 20

Total # of neighbors = 22331607
Ave neighs/atom = 27.929346
Ave special neighs/atom = 0.28815308
Neighbor list builds = 172100
Dangerous builds = 0
System init for write_restart ...
Generated 0 of 10 mixed pair_coeff terms from geometric mixing rule
Last active /omp style is angle_style harmonic
System init for write_data ...
Generated 0 of 10 mixed pair_coeff terms from geometric mixing rule
Last active /omp style is angle_style harmonic
WARNING: Not all mixed pair coeffs generated from mixing. Use write_data with 'pair ij' option to store all pair coeffs. (src/write_data.cpp:364)
Total wall time: 0:56:45
======================================
Running post-processing...
======================================
Generating convergence plot...
Plot saved to ./output_plots/convergence_plots/slab_support_tall_angle_8_1.0_1.0_1000000_convergence.png
Generating stress profiles...
No stress data found for slab_support_tall_angle_8_1.0_1.0_1000000, skipping stress plots
No volume data found for slab_support_tall_angle_8_1.0_1.0_1000000, skipping volume fraction plots
Generating piston plots...
Error: Piston position file not found: ./output_files/piston_data/piston_position_slab_support_tall_angle_8_1.0_1.0_1000000.dat
Generating computational efficiency plot...
Found data file: ./data_files/slab_support_tall_angle_8.data
Mobile atoms: 657415
Entry 'slab_support_tall_angle_8_1.0_1.0_1000000' already exists in tracking file, skipping.
Tracking info written to /jet/home/dpollard/Documents/lammps_work/tracking.txt
Saved /jet/home/dpollard/Documents/lammps_work/time_vs_atoms.png
Saved /jet/home/dpollard/Documents/lammps_work/time_vs_timesteps.png
======================================
Done! Results are in: /jet/home/dpollard/Documents/lammps_runs/slab_with_support_slab_support_tall_angle_8_1.0_1.0_20260210_151257
======================================
