======================================
Working directory: /jet/home/dpollard/Documents/lammps_runs/slab_with_support_slab_support_5beads_10x10x5_rho6_extra_padding43_1.5_1.4_20260104_140414
Trajectory directory (scratch): /ocean/projects/chm250028p/dpollard/lammps_trajectories/slab_with_support_slab_support_5beads_10x10x5_rho6_extra_padding43_1.5_1.4_20260104_140414
======================================
Running LAMMPS in slab_with_support with:
  dataname=slab_support_5beads_10x10x5_rho6_extra_padding43
  epsSS=1.5, epsSP=1.4
  nsteps=20000, oldsteps=0, totsteps=20000
SLURM tasks per node: 120
SLURM CPUs per task: 1
SLURM_GPUS_ON_NODE: 
GPUs allocated: 
Running CPU-only with 480 tasks
LAMMPS (22 Jul 2025)
OMP_NUM_THREADS environment is not set. Defaulting to 1 thread.
  using 1 OpenMP thread(s) per MPI task
using multi-threaded neighbor list subroutines
Reading data file ...
  orthogonal box = (0 0 0) to (87 87 55.5)
  10 by 8 by 6 MPI processor grid
  reading atoms ...
  766478 atoms
  scanning bonds ...
  3 = max bonds/atom
  orthogonal box = (0 0 0) to (87 87 55.5)
  10 by 8 by 6 MPI processor grid
  reading bonds ...
  144000 bonds
Finding 1-2 1-3 1-4 neighbors ...
  special bond factors lj:    0        0        0       
  special bond factors coul:  0        0        0       
     4 = max # of 1-2 neighbors
     4 = max # of 1-3 neighbors
     8 = max # of 1-4 neighbors
    12 = max # of special neighbors
  special bonds CPU = 0.126 seconds
  read_data CPU = 5.905 seconds
>>> is_restart = 0
>>> Previous    # of timesteps: 0
>>> Current     # of timesteps: 20000
>>> Cumulative  # of timesteps: 20000
127091 atoms in group polymer
420079 atoms in group solvent
109654 atoms in group support
109654 atoms in group piston
547170 atoms in group mobile
346399 atoms in group polymer_and_support
Finding 1-2 1-3 1-4 neighbors ...
  special bond factors lj:    0        1        1       
  special bond factors coul:  0        1        1       
     4 = max # of 1-2 neighbors
    12 = max # of special neighbors
  special bonds CPU = 0.017 seconds
Generated 0 of 10 mixed pair_coeff terms from geometric mixing rule
Last active /omp style is bond_style fene/omp
Neighbor list info ...
  update: every = 1 steps, delay = 0 steps, check = yes
  max neighbors/atom: 2000, page size: 100000
  master list distance cutoff = 2.8
  ghost atom cutoff = 5
  binsize = 1.4, bins = 63 63 40
  1 neighbor lists, perpetual/occasional/extra = 1 0 0
  (1) pair lj/cut/omp, perpetual
      attributes: half, newton on, omp
      pair build: half/bin/newton/omp
      stencil: half/bin/3d
      bin: standard
Setting up cg style minimization ...
  Unit style    : lj
  Current step  : 0
Per MPI rank memory allocation (min/avg/max) = 11.39 | 14.46 | 20.33 Mbytes
   Step          Temp          E_pair         E_mol          TotEng         Press     
         0   0              5.4656452e+18  17181.681      5.4656452e+18  3.9890514e+19
      3212   0             -4.6346672      4.2486332     -0.38603401     55.866842    
Loop time of 24.9574 on 480 procs for 3212 steps with 766478 atoms

99.3% CPU use with 480 MPI tasks x 1 OpenMP threads

Minimization stats:
  Stopping criterion = energy tolerance
  Energy initial, next-to-last, final = 
    5.46564523121817e+18 -0.386002224067636 -0.386034006139631
  Force two-norm initial, final = 5.1165644e+27 310.51341
  Force max component initial, final = 2.7623355e+27 52.901578
  Final line search alpha, max atom move = 0.0014283476 0.075561842
  Iterations, force evaluations = 3212 3861

MPI task timing breakdown:
Section |  min time  |  avg time  |  max time  |%varavg| %total
---------------------------------------------------------------
Pair    | 3.8912     | 5.7187     | 9.2703     |  51.6 | 22.91
Bond    | 0.0032315  | 0.052568   | 0.16999    |  21.0 |  0.21
Neigh   | 9.2865     | 9.603      | 9.993      |   5.4 | 38.48
Comm    | 3.4234     | 6.1476     | 9.7525     |  44.2 | 24.63
Output  | 0          | 0          | 0          |   0.0 |  0.00
Modify  | 0.03976    | 0.079811   | 0.1488     |   8.8 |  0.32
Other   |            | 3.356      |            |       | 13.45

Nlocal:        1596.83 ave        2570 max        1103 min
Histogram: 320 0 0 0 0 0 0 0 0 160
Nghost:          11967 ave       18741 max        8429 min
Histogram: 320 0 0 0 0 0 0 0 0 160
Neighs:        69332.6 ave       73800 max       64755 min
Histogram: 12 42 51 79 63 54 56 50 59 14

Total # of neighbors = 33279642
Ave neighs/atom = 43.418914
Ave special neighs/atom = 0.37574464
Neighbor list builds = 742
Dangerous builds = 19
Generated 0 of 10 mixed pair_coeff terms from geometric mixing rule
Last active /omp style is bond_style fene/omp
Setting up Verlet run ...
  Unit style    : lj
  Current step  : 0
  Time step     : 0.001
Per MPI rank memory allocation (min/avg/max) = 10.3 | 13 | 18.09 Mbytes
   Step          Temp          PotEng         KinEng         TotEng         Press          Volume           Lx             Ly             Lz      
         0   0.07138753    -0.38603401     0.10708116    -0.27895285     55.997096      420079.5       87             87             55.5         
      1000   0.46953946     0.29548159     0.70430828     0.99978987     62.386528      420079.5       87             87             55.5         
Loop time of 2.56461 on 480 procs for 1000 steps with 766478 atoms

Performance: 33689.305 tau/day, 389.923 timesteps/s, 298.867 Matom-step/s
99.4% CPU use with 480 MPI tasks x 1 OpenMP threads

MPI task timing breakdown:
Section |  min time  |  avg time  |  max time  |%varavg| %total
---------------------------------------------------------------
Pair    | 0.78804    | 0.85726    | 0.92576    |   3.2 | 33.43
Bond    | 0.00059149 | 0.0045775  | 0.00929    |   5.2 |  0.18
Neigh   | 0.23822    | 0.24532    | 0.25431    |   0.9 |  9.57
Comm    | 0.68768    | 1.0668     | 1.3376     |  16.0 | 41.60
Output  | 8.7445e-05 | 0.00097596 | 0.0015565  |   0.0 |  0.04
Modify  | 0.076757   | 0.088694   | 0.10804    |   2.6 |  3.46
Other   |            | 0.301      |            |       | 11.74

Nlocal:        1596.83 ave        2567 max        1098 min
Histogram: 320 0 0 0 0 0 0 0 0 160
Nghost:        11967.4 ave       18743 max        8452 min
Histogram: 320 0 0 0 0 0 0 0 0 160
Neighs:        69278.4 ave       73810 max       64924 min
Histogram: 14 44 53 90 57 48 58 65 43 8

Total # of neighbors = 33253609
Ave neighs/atom = 43.384949
Ave special neighs/atom = 0.37574464
Neighbor list builds = 19
Dangerous builds = 0
Generated 0 of 10 mixed pair_coeff terms from geometric mixing rule
Last active /omp style is bond_style fene/omp
Setting up Verlet run ...
  Unit style    : lj
  Current step  : 0
  Time step     : 0.005
Per MPI rank memory allocation (min/avg/max) = 10.3 | 13 | 18.09 Mbytes
   Step          Temp          PotEng         KinEng         TotEng         Press          Volume           Lx             Ly             Lz      
         0   0.46953946     0.29548159     0.70430828     0.99978987     62.386528      420079.5       87             87             55.5         
      1000   0.69479961    -1.8153118      1.0421981     -0.77311375     1.4415786      602987.48      98.139729      98.139729      62.606379    
Loop time of 4.76746 on 480 procs for 1000 steps with 766478 atoms

Performance: 90614.330 tau/day, 209.755 timesteps/s, 160.773 Matom-step/s
99.2% CPU use with 480 MPI tasks x 1 OpenMP threads

MPI task timing breakdown:
Section |  min time  |  avg time  |  max time  |%varavg| %total
---------------------------------------------------------------
Pair    | 0.59887    | 0.66418    | 0.75059    |   4.0 | 13.93
Bond    | 0.0010183  | 0.008863   | 0.026103   |   7.3 |  0.19
Neigh   | 2.3551     | 2.426      | 2.5127     |   2.6 | 50.89
Comm    | 0.8377     | 1.1828     | 1.4462     |  14.7 | 24.81
Output  | 9.3626e-05 | 0.00011184 | 0.0020306  |   0.0 |  0.00
Modify  | 0.26191    | 0.4508     | 0.72347    |  19.3 |  9.46
Other   |            | 0.03473    |            |       |  0.73

Nlocal:        1596.83 ave        2574 max        1097 min
Histogram: 320 0 0 0 0 0 0 0 0 160
Nghost:        9940.14 ave       15790 max        6875 min
Histogram: 320 0 0 0 0 0 0 0 0 160
Neighs:        45792.2 ave       49629 max       42763 min
Histogram: 30 96 84 27 10 32 92 90 18 1

Total # of neighbors = 21980267
Ave neighs/atom = 28.676971
Ave special neighs/atom = 0.37574464
Neighbor list builds = 222
Dangerous builds = 0
Generated 0 of 10 mixed pair_coeff terms from geometric mixing rule
Last active /omp style is bond_style fene/omp
Setting up Verlet run ...
  Unit style    : lj
  Current step  : 1000
  Time step     : 0.005
Per MPI rank memory allocation (min/avg/max) = 10.31 | 13 | 18.1 Mbytes
   Step          Temp          PotEng         KinEng         TotEng         Press          Volume           Lx             Ly             Lz      
      1000   0.69479961    -1.8153118      1.0421981     -0.77311375     1.4415786      602987.48      98.139729      98.139729      62.606379    
     10000   0.75638367    -1.4822167      1.134574      -0.34764272     1.0053664      632477.91      99.714246      99.714246      63.610812    
     20000   0.76503524    -1.4560306      1.1475514     -0.30847928     0.98874904     634513.24      99.821093      99.821093      63.678973    
     21000   0.76617814    -1.4517338      1.1492657     -0.30246811     1.0043915      634807.08      99.836499      99.836499      63.688801    
Loop time of 75.0193 on 480 procs for 20000 steps with 766478 atoms

Performance: 115170.358 tau/day, 266.598 timesteps/s, 204.342 Matom-step/s
99.3% CPU use with 480 MPI tasks x 1 OpenMP threads

MPI task timing breakdown:
Section |  min time  |  avg time  |  max time  |%varavg| %total
---------------------------------------------------------------
Pair    | 9.5308     | 10.969     | 12.484     |  22.5 | 14.62
Bond    | 0.018878   | 0.16872    | 0.47142    |  32.1 |  0.22
Neigh   | 31.998     | 33.007     | 34.217     |  10.0 | 44.00
Comm    | 14.257     | 21.28      | 26.054     |  64.9 | 28.37
Output  | 0.028304   | 0.13452    | 0.29058    |  22.9 |  0.18
Modify  | 5.2239     | 8.8241     | 14.522     |  83.7 | 11.76
Other   |            | 0.6361     |            |       |  0.85

Nlocal:        1596.83 ave        2581 max        1075 min
Histogram: 320 0 0 0 0 0 0 0 3 157
Nghost:        9681.13 ave       15474 max        6598 min
Histogram: 320 0 0 0 0 0 0 0 0 160
Neighs:        43654.3 ave       48391 max       39435 min
Histogram: 34 103 86 17 1 14 61 73 71 20

Total # of neighbors = 20954084
Ave neighs/atom = 27.338141
Ave special neighs/atom = 0.37574464
Neighbor list builds = 3383
Dangerous builds = 0
System init for write_restart ...
Generated 0 of 10 mixed pair_coeff terms from geometric mixing rule
Last active /omp style is bond_style fene/omp
System init for write_data ...
Generated 0 of 10 mixed pair_coeff terms from geometric mixing rule
Last active /omp style is bond_style fene/omp
WARNING: Not all mixed pair coeffs generated from mixing. Use write_data with 'pair ij' option to store all pair coeffs. (src/write_data.cpp:364)
Total wall time: 0:01:55
======================================
Running post-processing...
======================================
Generating convergence plot...
Plot saved to ./output_plots/convergence_plots/slab_support_5beads_10x10x5_rho6_extra_padding43_1.5_1.4_20000_convergence.png
Generating stress profiles...
No stress data found for slab_support_5beads_10x10x5_rho6_extra_padding43_1.5_1.4_20000, skipping stress plots
No volume data found for slab_support_5beads_10x10x5_rho6_extra_padding43_1.5_1.4_20000, skipping volume fraction plots
Generating computational efficiency plot...
Mobile atoms: 547168
Entry 'slab_support_5beads_10x10x5_rho6_extra_padding43_1.5_1.4_20000' already exists in tracking file, skipping.
Tracking info written to /jet/home/dpollard/Documents/lammps_work/tracking.txt
Saved /jet/home/dpollard/Documents/lammps_work/time_vs_atoms.png
Saved /jet/home/dpollard/Documents/lammps_work/time_vs_timesteps.png
======================================
Done! Results are in: /jet/home/dpollard/Documents/lammps_runs/slab_with_support_slab_support_5beads_10x10x5_rho6_extra_padding43_1.5_1.4_20260104_140414
======================================
