======================================
Working directory: /home/pollard/Documents/lammps_runs/slab_with_support_slab_support_5beads_10x10x5_rho6_extra_padding43_1.5_1.4_20260102_175230
Trajectory directory (scratch): /scratch/pollard/lammps_trajectories/slab_with_support_slab_support_5beads_10x10x5_rho6_extra_padding43_1.5_1.4_20260102_175230
======================================
Running LAMMPS in slab_with_support with:
  dataname=slab_support_5beads_10x10x5_rho6_extra_padding43
  epsSS=1.5, epsSP=1.4
  nsteps=1000000, oldsteps=0, totsteps=1000000
SLURM tasks per node: 40
SLURM CPUs per task: 1
LAMMPS (22 Jul 2025 - Update 1)
OMP_NUM_THREADS environment is not set. Defaulting to 1 thread.
  using 1 OpenMP thread(s) per MPI task
using multi-threaded neighbor list subroutines
Reading data file ...
  orthogonal box = (0 0 0) to (87 87 55.5)
  5 by 4 by 2 MPI processor grid
  reading atoms ...
  766478 atoms
  scanning bonds ...
  3 = max bonds/atom
  orthogonal box = (0 0 0) to (87 87 55.5)
  5 by 4 by 2 MPI processor grid
  reading bonds ...
  144000 bonds
Finding 1-2 1-3 1-4 neighbors ...
  special bond factors lj:    0        0        0       
  special bond factors coul:  0        0        0       
     4 = max # of 1-2 neighbors
     4 = max # of 1-3 neighbors
     8 = max # of 1-4 neighbors
    12 = max # of special neighbors
  special bonds CPU = 0.018 seconds
  read_data CPU = 1.946 seconds
>>> is_restart = 0
>>> Previous    # of timesteps: 0
>>> Current     # of timesteps: 1000000
>>> Cumulative  # of timesteps: 1000000
127091 atoms in group polymer
420079 atoms in group solvent
109654 atoms in group support
109654 atoms in group piston
547170 atoms in group mobile
346399 atoms in group polymer_and_support
Finding 1-2 1-3 1-4 neighbors ...
  special bond factors lj:    0        1        1       
  special bond factors coul:  0        1        1       
     4 = max # of 1-2 neighbors
    12 = max # of special neighbors
  special bonds CPU = 0.009 seconds
Generated 0 of 10 mixed pair_coeff terms from geometric mixing rule
Last active /omp style is bond_style fene/omp
Neighbor list info ...
  update: every = 1 steps, delay = 0 steps, check = yes
  max neighbors/atom: 2000, page size: 100000
  master list distance cutoff = 2.8
  ghost atom cutoff = 5
  binsize = 1.4, bins = 63 63 40
  1 neighbor lists, perpetual/occasional/extra = 1 0 0
  (1) pair lj/cut/omp, perpetual
      attributes: half, newton on, omp
      pair build: half/bin/newton/omp
      stencil: half/bin/3d
      bin: standard
Setting up cg style minimization ...
  Unit style    : lj
  Current step  : 0
Per MPI rank memory allocation (min/avg/max) = 38.72 | 43.98 | 50.27 Mbytes
   Step          Temp          E_pair         E_mol          TotEng         Press     
         0   0              5.4656452e+18  17181.681      5.4656452e+18  3.9890514e+19
      3106   0             -4.6343452      4.2498349     -0.38451023     55.847266    
Loop time of 161.308 on 40 procs for 3106 steps with 766478 atoms

95.0% CPU use with 40 MPI tasks x 1 OpenMP threads

Minimization stats:
  Stopping criterion = energy tolerance
  Energy initial, next-to-last, final = 
    5.46564523121815e+18  -0.38447443231529 -0.384510228925925
  Force two-norm initial, final = 5.1165644e+27 321.96613
  Force max component initial, final = 2.7623355e+27 86.619883
  Final line search alpha, max atom move = 0.0017023212 0.14745486
  Iterations, force evaluations = 3106 3760

MPI task timing breakdown:
Section |  min time  |  avg time  |  max time  |%varavg| %total
---------------------------------------------------------------
Pair    | 51.414     | 66.141     | 87.367     | 135.9 | 41.00
Bond    | 0.13073    | 0.5976     | 1.3296     |  49.6 |  0.37
Neigh   | 52.811     | 53.188     | 53.647     |   2.9 | 32.97
Comm    | 12.377     | 34.13      | 48.84      | 192.6 | 21.16
Output  | 0          | 0          | 0          |   0.0 |  0.00
Modify  | 1.4703     | 1.652      | 1.841      |   7.4 |  1.02
Other   |            | 5.599      |            |       |  3.47

Nlocal:          19162 ave       19481 max       18815 min
Histogram: 3 1 2 8 6 4 7 3 4 2
Nghost:        48874.6 ave       49157 max       48644 min
Histogram: 3 5 4 7 5 5 3 2 2 4
Neighs:         831973 ave      863918 max      805727 min
Histogram: 7 1 1 12 6 1 5 1 1 5

Total # of neighbors = 33278931
Ave neighs/atom = 43.417986
Ave special neighs/atom = 0.37574464
Neighbor list builds = 732
Dangerous builds = 19
Generated 0 of 10 mixed pair_coeff terms from geometric mixing rule
Last active /omp style is bond_style fene/omp
Setting up Verlet run ...
  Unit style    : lj
  Current step  : 0
  Time step     : 0.001
Per MPI rank memory allocation (min/avg/max) = 41.63 | 42.34 | 44.65 Mbytes
   Step          Temp          PotEng         KinEng         TotEng         Press          Volume           Lx             Ly             Lz      
         0   0.07138753    -0.38451023     0.10708116    -0.27742907     55.97752       420079.5       87             87             55.5         
      1000   0.46908402     0.29574248     0.70362511     0.99936759     62.36423       420079.5       87             87             55.5         
Loop time of 15.2583 on 40 procs for 1000 steps with 766478 atoms

Performance: 5662.490 tau/day, 65.538 timesteps/s, 50.233 Matom-step/s
92.7% CPU use with 40 MPI tasks x 1 OpenMP threads

MPI task timing breakdown:
Section |  min time  |  avg time  |  max time  |%varavg| %total
---------------------------------------------------------------
Pair    | 9.3216     | 9.6541     | 10.025     |   5.6 | 63.27
Bond    | 0.03593    | 0.10324    | 0.18921    |  15.0 |  0.68
Neigh   | 1.1938     | 1.2025     | 1.2105     |   0.4 |  7.88
Comm    | 2.1439     | 2.5822     | 2.9855     |  13.3 | 16.92
Output  | 0.00016217 | 0.00033672 | 0.00045545 |   0.0 |  0.00
Modify  | 1.2555     | 1.3623     | 1.6004     |   5.4 |  8.93
Other   |            | 0.3536     |            |       |  2.32

Nlocal:          19162 ave       19454 max       18834 min
Histogram: 2 2 2 7 7 3 8 1 5 3
Nghost:        48869.9 ave       49165 max       48643 min
Histogram: 5 2 5 8 5 6 2 3 2 2
Neighs:         831296 ave      862730 max      807236 min
Histogram: 8 0 3 11 5 3 3 1 2 4

Total # of neighbors = 33251821
Ave neighs/atom = 43.382616
Ave special neighs/atom = 0.37574464
Neighbor list builds = 18
Dangerous builds = 0
Generated 0 of 10 mixed pair_coeff terms from geometric mixing rule
Last active /omp style is bond_style fene/omp
Setting up Verlet run ...
  Unit style    : lj
  Current step  : 0
  Time step     : 0.005
Per MPI rank memory allocation (min/avg/max) = 41.63 | 42.34 | 44.65 Mbytes
   Step          Temp          PotEng         KinEng         TotEng         Press          Volume           Lx             Ly             Lz      
         0   0.46908402     0.29574248     0.70362511     0.99936759     62.36423       420079.5       87             87             55.5         
      1000   0.69505023    -1.8166957      1.042574      -0.77412166     1.4359788      602873.62      98.133551      98.133551      62.602438    
Loop time of 26.6452 on 40 procs for 1000 steps with 766478 atoms

Performance: 16213.060 tau/day, 37.530 timesteps/s, 28.766 Matom-step/s
95.6% CPU use with 40 MPI tasks x 1 OpenMP threads

MPI task timing breakdown:
Section |  min time  |  avg time  |  max time  |%varavg| %total
---------------------------------------------------------------
Pair    | 7.4547     | 7.818      | 8.2051     |   6.9 | 29.34
Bond    | 0.046986   | 0.13938    | 0.24471    |  15.4 |  0.52
Neigh   | 12.931     | 13.038     | 13.127     |   1.4 | 48.93
Comm    | 3.0094     | 3.5181     | 3.954      |  12.4 | 13.20
Output  | 0.00015314 | 0.00015865 | 0.0001796  |   0.0 |  0.00
Modify  | 1.8298     | 1.8779     | 1.9538     |   2.2 |  7.05
Other   |            | 0.2539     |            |       |  0.95

Nlocal:          19162 ave       19451 max       18828 min
Histogram: 1 3 3 7 4 7 3 4 3 5
Nghost:        42636.2 ave       43004 max       42334 min
Histogram: 3 8 5 6 1 3 4 3 4 3
Neighs:         549432 ave      573679 max      531493 min
Histogram: 4 4 8 5 4 5 4 0 1 5

Total # of neighbors = 21977293
Ave neighs/atom = 28.67309
Ave special neighs/atom = 0.37574464
Neighbor list builds = 221
Dangerous builds = 0
Generated 0 of 10 mixed pair_coeff terms from geometric mixing rule
Last active /omp style is bond_style fene/omp
Setting up Verlet run ...
  Unit style    : lj
  Current step  : 1000
  Time step     : 0.005
Per MPI rank memory allocation (min/avg/max) = 41.65 | 42.36 | 44.67 Mbytes
   Step          Temp          PotEng         KinEng         TotEng         Press          Volume           Lx             Ly             Lz      
      1000   0.69505023    -1.8166957      1.042574      -0.77412166     1.4359788      602873.62      98.133551      98.133551      62.602438    
     10000   0.75827249    -1.4793137      1.1374073     -0.34190644     1.0043995      632792.18      99.730759      99.730759      63.621346    
     20000   0.76639071    -1.4542077      1.1495846     -0.30462315     0.98440251     634833.99      99.83791       99.83791       63.689701    
     30000   0.77157972    -1.438132       1.1573681     -0.28076394     0.98861509     635960.22      99.896914      99.896914      63.727342    
     40000   0.77824394    -1.4223856      1.1673644     -0.25502119     1.0112587      637208.59      99.962237      99.962237      63.769013    
     50000   0.77995734    -1.4128223      1.1699345     -0.24288785     1.003209       637989.69      100.00306      100.00306      63.795059    
     60000   0.78289028    -1.3985811      1.1743339     -0.22424727     1.0016842      639080.94      100.06005      100.06005      63.831411    
     70000   0.78779821    -1.3924679      1.1816958     -0.21077209     0.99216934     639767.97      100.09589      100.09589      63.854276    
     80000   0.79209879    -1.3822121      1.1881466     -0.19406551     1.0050719      640415.76      100.12966      100.12966      63.87582     
     90000   0.79437071    -1.3737069      1.1915545     -0.18215239     1.0042209      641222.03      100.17167      100.17167      63.902615    
    100000   0.79742746    -1.3697796      1.1961396     -0.17363994     1.0112401      641491.45      100.18569      100.18569      63.911564    
    110000   0.79882032    -1.3585131      1.1982289     -0.16028419     1.0085785      642286.31      100.22706      100.22706      63.93795     
    120000   0.80059168    -1.3554349      1.200886      -0.15454894     1.0062252      642665.73      100.24679      100.24679      63.950538    
    130000   0.80316699    -1.3477276      1.2047489     -0.14297869     1.0020913      643447.46      100.28742      100.28742      63.976457    
    140000   0.80350577    -1.3448383      1.2052571     -0.1395812      0.97914196     643834.44      100.30752      100.30752      63.98928     
    150000   0.80534366    -1.3375983      1.2080139     -0.12958437     0.98200814     644173.31      100.32511      100.32511      64.000504    
    160000   0.80796381    -1.3317744      1.2119441     -0.11983026     0.99995569     644747.93      100.35494      100.35494      64.019529    
    170000   0.81085338    -1.3259627      1.2162785     -0.10968426     0.9981441      645263.25      100.38167      100.38167      64.03658     
    180000   0.81163204    -1.3253219      1.2174465     -0.10787548     1.0033965      645167.44      100.3767       100.3767       64.033411    
    190000   0.81288392    -1.321982       1.2193243     -0.10265774     1.0076765      645484.78      100.39315      100.39315      64.043908    
    200000   0.81482593    -1.3118126      1.2222373     -0.089575287    0.98969949     646488.94      100.44518      100.44518      64.077101    
    210000   0.81570948    -1.3130155      1.2235626     -0.089452898    1.0080567      646049.62      100.42243      100.42243      64.062583    
    220000   0.81647217    -1.3108536      1.2247067     -0.086146932    0.99572351     646671.27      100.45463      100.45463      64.083124    
    230000   0.81850477    -1.3047294      1.2277556     -0.076973818    1.0191844      646894.71      100.4662       100.4662       64.090504    
    240000   0.81695753    -1.3022322      1.2254347     -0.076797557    1.0055794      647237.31      100.48393      100.48393      64.101816    
    250000   0.82066053    -1.3016997      1.2309892     -0.070710501    0.97837153     647560.86      100.50067      100.50067      64.112496    
    260000   0.81991761    -1.2985804      1.2298748     -0.068705616    0.98924136     647696.64      100.50769      100.50769      64.116977    
    270000   0.82090147    -1.2962177      1.2313506     -0.064867088    0.99638316     647867.39      100.51652      100.51652      64.12261     
    280000   0.82194784    -1.294459       1.2329201     -0.061538858    1.0037201      647926.53      100.51958      100.51958      64.124561    
    290000   0.82394358    -1.2899623      1.2359138     -0.054048508    0.98250881     648562.81      100.55248      100.55248      64.145545    
    300000   0.8238316     -1.2896351      1.2357458     -0.053889331    0.99696705     648439.33      100.54609      100.54609      64.141474    
    310000   0.82489134    -1.2883086      1.2373354     -0.050973184    0.99554551     648474.59      100.54792      100.54792      64.142637    
    320000   0.8253219     -1.2861523      1.2379812     -0.04817111     0.99835232     648724.91      100.56085      100.56085      64.150889    
    330000   0.82656296    -1.2828134      1.2398428     -0.042970574    1.0058618      648978.5       100.57395      100.57395      64.159247    
    340000   0.827557      -1.2807714      1.2413339     -0.039437545    0.99899033     649218.62      100.58636      100.58636      64.167159    
    350000   0.82682243    -1.2780257      1.240232      -0.037793667    1.0134881      649180.95      100.58441      100.58441      64.165918    
    360000   0.82952057    -1.2788555      1.2442792     -0.034576267    0.99988147     649480.44      100.59988      100.59988      64.175784    
    370000   0.82770472    -1.2757772      1.2415555     -0.034221715    0.98812516     649693.98      100.6109       100.6109       64.182816    
    380000   0.82706339    -1.2752563      1.2405935     -0.034662855    0.98835337     649771.25      100.61489      100.61489      64.18536     
    390000   0.83014946    -1.2729494      1.2452226     -0.027726807    0.98236828     650083.93      100.63103      100.63103      64.195654    
    400000   0.83043228    -1.2728855      1.2456468     -0.027238759    0.99745927     649966.52      100.62497      100.62497      64.191789    
    410000   0.83088745    -1.2732176      1.2463295     -0.026888017    0.97716986     650060.36      100.62981      100.62981      64.194879    
    420000   0.83057905    -1.271648       1.2458669     -0.025781017    0.98583159     650227.28      100.63842      100.63842      64.200373    
    430000   0.83274933    -1.2677644      1.2491224     -0.018642073    0.99517502     650388.99      100.64676      100.64676      64.205694    
    440000   0.83212908    -1.265287       1.248192      -0.017095038    0.97432551     650866.79      100.6714       100.6714       64.221413    
    450000   0.83270989    -1.2674807      1.2490632     -0.01841745     0.99968871     650507.18      100.65286      100.65286      64.209583    
    460000   0.83323389    -1.2681468      1.2498492     -0.018297576    0.99571656     650405.61      100.64762      100.64762      64.206241    
    470000   0.83503787    -1.2663165      1.2525552     -0.013761375    1.0136762      650384.15      100.64651      100.64651      64.205535    
    480000   0.83396572    -1.2652215      1.250947      -0.01427455     1.0110092      650517.53      100.65339      100.65339      64.209924    
    490000   0.8343765     -1.2603189      1.2515631     -0.0087557821   1.0073148      650935.17      100.67493      100.67493      64.223662    
    500000   0.83532639    -1.2625185      1.2529879     -0.009530597    0.9847667      650965.51      100.67649      100.67649      64.22466     
    510000   0.83538441    -1.2618116      1.253075      -0.0087366709   0.99377359     650825.58      100.66928      100.66928      64.220058    
    520000   0.83465985    -1.2549675      1.2519881     -0.0029793977   0.9867964      651515.2       100.70482      100.70482      64.242733    
    530000   0.83658508    -1.2599405      1.254876      -0.0050644696   0.99697561     651084.47      100.68263      100.68263      64.228572    
    540000   0.83604741    -1.2593834      1.2540695     -0.0053139256   1.0089499      651161.53      100.6866       100.6866       64.231106    
    550000   0.83600725    -1.2593462      1.2540092     -0.0053369247   0.97896491     651331.26      100.69535      100.69535      64.236686    
    560000   0.8362286     -1.2550475      1.2543413     -0.0007062283   0.99827152     651431.45      100.70051      100.70051      64.23998     
    570000   0.83647602    -1.2546625      1.2547124      4.9843827e-05  0.99395769     651585.49      100.70845      100.70845      64.245043    
    580000   0.83723329    -1.2565287      1.2558483     -0.0006803704   0.99448158     651332.08      100.69539      100.69539      64.236713    
    590000   0.83629908    -1.2549045      1.254447      -0.00045756737  1.0015829      651449.5       100.70144      100.70144      64.240573    
    600000   0.83724878    -1.2522495      1.2558715      0.0036219953   1.0025255      651767.29      100.71781      100.71781      64.251017    
    610000   0.83775121    -1.2529572      1.2566252      0.0036680091   1.0174614      651365.14      100.69709      100.69709      64.2378      
    620000   0.83742434    -1.2501997      1.2561349      0.0059352066   1.0054827      651889.48      100.7241       100.7241       64.255032    
    630000   0.83866414    -1.252581       1.2579946      0.005413524    0.9930948      651807.49      100.71988      100.71988      64.252338    
    640000   0.83769071    -1.2534618      1.2565344      0.0030726645   0.99693273     651675.46      100.71308      100.71308      64.247999    
    650000   0.84030706    -1.2516038      1.2604589      0.008855116    1.0172706      651718.98      100.71532      100.71532      64.24943     
    660000   0.83856307    -1.251231       1.257843       0.0066119957   0.98911042     652032.88      100.73149      100.73149      64.259743    
    670000   0.83836355    -1.2483171      1.2575437      0.009226537    1.0100849      652022.11      100.73093      100.73093      64.259389    
    680000   0.83963327    -1.249021       1.2594483      0.010427313    1.0094349      651961.45      100.72781      100.72781      64.257397    
    690000   0.83859854    -1.2480781      1.2578962      0.0098180808   0.9826487      652290.53      100.74476      100.74476      64.268206    
    700000   0.83976394    -1.2481247      1.2596443      0.011519552    0.98964265     652227.4       100.74151      100.74151      64.266133    
    710000   0.83920051    -1.2471193      1.2587991      0.01167982     0.99477562     652329         100.74674      100.74674      64.26947     
    720000   0.8409459     -1.2499668      1.2614172      0.011450354    1.0087025      651936.59      100.72653      100.72653      64.25658     
    730000   0.8397518     -1.2462279      1.2596261      0.013398137    0.98712222     652431.83      100.75203      100.75203      64.272846    
    740000   0.83873609    -1.2492257      1.2581025      0.0088767875   0.99490433     652137.64      100.73688      100.73688      64.263185    
    750000   0.84007145    -1.2484153      1.2601055      0.011690273    0.98908144     652268.24      100.74361      100.74361      64.267474    
    760000   0.8405642     -1.248021       1.2608447      0.012823613    1.0128031      652091.52      100.73451      100.73451      64.261669    
    770000   0.84174634    -1.245517       1.2626179      0.017100908    0.99908927     652415.43      100.75119      100.75119      64.272308    
    780000   0.84201778    -1.245566       1.263025       0.017458972    1.0181176      652320.71      100.74631      100.74631      64.269197    
    790000   0.84204026    -1.2487517      1.2630587      0.014307054    0.99337422     652285.55      100.7445       100.7445       64.268043    
    800000   0.84185445    -1.2439877      1.26278        0.018792314    0.97641377     652723.42      100.76704      100.76704      64.28242     
    810000   0.84295789    -1.2460528      1.2644352      0.018382432    0.99938332     652390.25      100.74989      100.74989      64.271481    
    820000   0.83955817    -1.2445329      1.2593356      0.014802741    1.0144069      652285.02      100.74447      100.74447      64.268025    
    830000   0.84057758    -1.2446896      1.2608647      0.016175133    1.0024345      652497.02      100.75539      100.75539      64.274987    
    840000   0.84131057    -1.2450156      1.2619642      0.016948653    0.99345661     652518.97      100.75651      100.75651      64.275708    
    850000   0.84220834    -1.2436649      1.2633109      0.019645909    1.0042032      652597.79      100.76057      100.76057      64.278296    
    860000   0.8413885     -1.2470431      1.2620811      0.015037963    0.98975529     652420.41      100.75144      100.75144      64.272471    
    870000   0.84050225    -1.2457978      1.2607517      0.014953924    1.0047107      652368.77      100.74878      100.74878      64.270776    
    880000   0.8419645     -1.2445297      1.2629451      0.018415392    0.98752289     652564.29      100.75885      100.75885      64.277196    
    890000   0.84240569    -1.2421713      1.2636069      0.021435586    0.98887174     652844.52      100.77327      100.77327      64.286395    
    900000   0.84288692    -1.2449573      1.2643287      0.019371419    0.99525831     652603.4       100.76086      100.76086      64.27848     
    910000   0.8420525     -1.2426368      1.2630771      0.020440255    1.0052098      652761.84      100.76901      100.76901      64.283681    
    920000   0.84181592    -1.2406793      1.2627222      0.022042877    1.0248622      652698.01      100.76573      100.76573      64.281586    
    930000   0.8418882     -1.2460333      1.2628307      0.01679732     0.99210975     652554.52      100.75834      100.75834      64.276875    
    940000   0.84157452    -1.2422582      1.2623601      0.020101958    0.99084523     652800.46      100.771        100.771        64.284949    
    950000   0.84271795    -1.2456415      1.2640753      0.01843374     0.99349898     652554.54      100.75835      100.75835      64.276876    
    960000   0.84327978    -1.2460954      1.264918       0.018822618    1.0129121      652288.92      100.74467      100.74467      64.268153    
    970000   0.84150016    -1.2427256      1.2622486      0.019522975    0.99844955     652703.95      100.76604      100.76604      64.281781    
    980000   0.84378767    -1.2433211      1.2656799      0.022358796    1.0147841      652556.18      100.75843      100.75843      64.276929    
    990000   0.84324933    -1.2497242      1.2648723      0.015148161    0.99867467     652171.22      100.73861      100.73861      64.264288    
   1000000   0.84214004    -1.2423836      1.2632084      0.020824778    1.0068195      652757.39      100.76878      100.76878      64.283535    
   1001000   0.8423847     -1.2459975      1.2635754      0.017577879    1.0057843      652369.55      100.74882      100.74882      64.270801    
Loop time of 21215.3 on 40 procs for 1000000 steps with 766478 atoms

Performance: 20362.632 tau/day, 47.136 timesteps/s, 36.128 Matom-step/s
95.2% CPU use with 40 MPI tasks x 1 OpenMP threads

MPI task timing breakdown:
Section |  min time  |  avg time  |  max time  |%varavg| %total
---------------------------------------------------------------
Pair    | 6295.7     | 6645.4     | 7034       | 274.8 | 31.32
Bond    | 55.485     | 137.8      | 227.52     | 432.0 |  0.65
Neigh   | 9385.5     | 9464.6     | 9541.6     |  38.9 | 44.61
Comm    | 2475.1     | 2968       | 3364.2     | 495.6 | 13.99
Output  | 0.013777   | 0.01404    | 0.014996   |   0.1 |  0.00
Modify  | 1706.9     | 1746.5     | 1809.1     |  57.2 |  8.23
Other   |            | 253        |            |       |  1.19

Nlocal:          19162 ave       19559 max       18780 min
Histogram: 4 3 4 4 10 3 1 1 7 3
Nghost:          41069 ave       41439 max       40740 min
Histogram: 2 4 8 7 4 3 1 1 5 5
Neighs:         510094 ave      536783 max      489256 min
Histogram: 8 1 5 8 6 0 1 2 7 2

Total # of neighbors = 20403762
Ave neighs/atom = 26.620153
Ave special neighs/atom = 0.37574464
Neighbor list builds = 176541
Dangerous builds = 0
System init for write_restart ...
Generated 0 of 10 mixed pair_coeff terms from geometric mixing rule
Last active /omp style is bond_style fene/omp
System init for write_data ...
Generated 0 of 10 mixed pair_coeff terms from geometric mixing rule
Last active /omp style is bond_style fene/omp
WARNING: Not all mixed pair coeffs generated from mixing. Use write_data with 'pair ij' option to store all pair coeffs. (src/write_data.cpp:364)
Total wall time: 5:57:02
======================================
Running post-processing...
======================================
Generating convergence plot...
Plot saved to ./output_plots/convergence_plots/slab_support_5beads_10x10x5_rho6_extra_padding43_1.5_1.4_1000000_convergence.png
Generating stress profiles...
No stress data found for slab_support_5beads_10x10x5_rho6_extra_padding43_1.5_1.4_1000000, skipping stress plots
No volume data found for slab_support_5beads_10x10x5_rho6_extra_padding43_1.5_1.4_1000000, skipping volume fraction plots
Generating computational efficiency plot...
Mobile atoms: 547168
Tracking info written to /home/pollard/Documents/lammps_work/tracking.txt
Saved /home/pollard/Documents/lammps_work/time_vs_atoms.png
Saved /home/pollard/Documents/lammps_work/time_vs_timesteps.png
======================================
Done! Results are in: /home/pollard/Documents/lammps_runs/slab_with_support_slab_support_5beads_10x10x5_rho6_extra_padding43_1.5_1.4_20260102_175230
======================================
