======================================
Working directory: /home/dpollard/Documents/lammps_runs/slab_with_support_slab_support_5beads_tall_4_1.0_1.05_20260304_191714
Trajectory directory (scratch): /expanse/lustre/scratch/dpollard/temp_project/lammps_trajectories/slab_with_support_slab_support_5beads_tall_4_1.0_1.05_20260304_191714
======================================
Running LAMMPS in slab_with_support with:
  dataname=slab_support_5beads_tall_4
  epsSS=1.0, epsSP=1.05
  nsteps=150000, oldsteps=0, totsteps=150000
SLURM tasks per node: 40
SLURM CPUs per task: 1
SLURM_GPUS_ON_NODE: 
GPUs allocated: 
Running CPU-only with 80 tasks
LAMMPS (22 Jul 2025 - Update 3)
  using 1 OpenMP thread(s) per MPI task
using multi-threaded neighbor list subroutines
Reading data file ...
  orthogonal box = (0 0 0) to (66 66 113.4)
  4 by 4 by 5 MPI processor grid
  reading atoms ...
  722171 atoms
  scanning bonds ...
  3 = max bonds/atom
  orthogonal box = (0 0 0) to (66 66 113.4)
  4 by 4 by 5 MPI processor grid
  reading bonds ...
  115200 bonds
Finding 1-2 1-3 1-4 neighbors ...
  special bond factors lj:    0        0        0       
  special bond factors coul:  0        0        0       
     4 = max # of 1-2 neighbors
     4 = max # of 1-3 neighbors
     8 = max # of 1-4 neighbors
    12 = max # of special neighbors
  special bonds CPU = 8.091 seconds
  read_data CPU = 75.512 seconds
>>> is_restart = 0
>>> Previous    # of timesteps: 0
>>> Current     # of timesteps: 150000
>>> Cumulative  # of timesteps: 150000
101759 atoms in group polymer
493970 atoms in group solvent
63221 atoms in group support
63221 atoms in group piston
595729 atoms in group mobile
228201 atoms in group polymer_and_support
Finding 1-2 1-3 1-4 neighbors ...
  special bond factors lj:    0        1        1       
  special bond factors coul:  0        1        1       
     4 = max # of 1-2 neighbors
    12 = max # of special neighbors
  special bonds CPU = 3.498 seconds
Generated 0 of 10 mixed pair_coeff terms from geometric mixing rule
Last active /omp style is bond_style fene/omp
Neighbor list info ...
  update: every = 1 steps, delay = 0 steps, check = yes
  max neighbors/atom: 2000, page size: 100000
  master list distance cutoff = 2.8
  ghost atom cutoff = 5
  binsize = 1.4, bins = 48 48 81
  1 neighbor lists, perpetual/occasional/extra = 1 0 0
  (1) pair lj/cut/omp, perpetual
      attributes: half, newton on, omp
      pair build: half/bin/newton/omp
      stencil: half/bin/3d
      bin: standard
Setting up cg style minimization ...
  Unit style    : lj
  Current step  : 0
Per MPI rank memory allocation (min/avg/max) = 20.16 | 25.46 | 37.65 Mbytes
   Step          Temp          E_pair         E_mol          TotEng         Press     
         0   0              3.000002e+19   1615.3881      3.000002e+19   1.7543678e+20
      1737   0             -4.9814176      2.7873336     -2.194084       21.306171    
Loop time of 1841.64 on 80 procs for 1737 steps with 722171 atoms

19.9% CPU use with 80 MPI tasks x 1 OpenMP threads

Minimization stats:
  Stopping criterion = energy tolerance
  Energy initial, next-to-last, final = 
    3.00000195977046e+19  -2.19392800937493  -2.19408404757998
  Force two-norm initial, final = 4.157284e+28 743.65676
  Force max component initial, final = 1.9995556e+28 208.33307
  Final line search alpha, max atom move = 0.00049607995 0.10334986
  Iterations, force evaluations = 1737 1937

MPI task timing breakdown:
Section |  min time  |  avg time  |  max time  |%varavg| %total
---------------------------------------------------------------
Pair    | 109.14     | 158.08     | 219.97     | 232.5 |  8.58
Bond    | 0.013322   | 1.1109     | 7.4843     | 125.8 |  0.06
Neigh   | 166.12     | 173.15     | 179.24     |  22.5 |  9.40
Comm    | 361.47     | 417.42     | 486.9      | 153.8 | 22.67
Output  | 0          | 0          | 0          |   0.0 |  0.00
Modify  | 0.10956    | 0.19964    | 0.58578    |  22.3 |  0.01
Other   |            | 1092       |            |       | 59.28

Nlocal:        9027.14 ave       11492 max        7293 min
Histogram: 40 8 0 0 0 0 0 0 14 18
Nghost:        26860.5 ave       36884 max       19881 min
Histogram: 48 0 0 0 0 0 0 0 0 32
Neighs:         417957 ave      457860 max      359223 min
Histogram: 4 8 4 4 4 16 0 16 16 8

Total # of neighbors = 33436587
Ave neighs/atom = 46.300097
Ave special neighs/atom = 0.31903801
Neighbor list builds = 409
Dangerous builds = 16
Generated 0 of 10 mixed pair_coeff terms from geometric mixing rule
Last active /omp style is bond_style fene/omp
Setting up Verlet run ...
  Unit style    : lj
  Current step  : 0
  Time step     : 0.001
Per MPI rank memory allocation (min/avg/max) = 18.32 | 22.83 | 33.53 Mbytes
   Step          Temp          PotEng         KinEng         TotEng         Press          Volume           Lx             Ly             Lz      
         0   0.08249138    -2.194084       0.1237369     -2.0703471      21.426771      493970.4       66             66             113.4        
      1000   0.55025191    -1.4365482      0.82537672    -0.61117152     27.280983      493970.4       66             66             113.4        
Loop time of 301.646 on 80 procs for 1000 steps with 722171 atoms

Performance: 286.429 tau/day, 3.315 timesteps/s, 2.394 Matom-step/s
19.9% CPU use with 80 MPI tasks x 1 OpenMP threads

MPI task timing breakdown:
Section |  min time  |  avg time  |  max time  |%varavg| %total
---------------------------------------------------------------
Pair    | 47.18      | 52.473     | 55.475     |  20.5 | 17.40
Bond    | 0.0046506  | 0.097955   | 0.63683    |  32.8 |  0.03
Neigh   | 8.2462     | 8.6655     | 9.0315     |   6.1 |  2.87
Comm    | 141.83     | 155.22     | 169.4      |  50.5 | 51.46
Output  | 0.34524    | 0.37545    | 0.42488    |   2.8 |  0.12
Modify  | 1.1311     | 1.8138     | 2.8227     |  29.2 |  0.60
Other   |            | 83         |            |       | 27.52

Nlocal:        9027.14 ave       11471 max        7334 min
Histogram: 48 0 0 0 0 0 0 0 7 25
Nghost:        26857.2 ave       36849 max       19954 min
Histogram: 48 0 0 0 0 0 0 0 0 32
Neighs:         417025 ave      449764 max      369674 min
Histogram: 4 10 2 3 5 16 0 16 16 8

Total # of neighbors = 33362011
Ave neighs/atom = 46.19683
Ave special neighs/atom = 0.31903801
Neighbor list builds = 20
Dangerous builds = 0
Generated 0 of 10 mixed pair_coeff terms from geometric mixing rule
Last active /omp style is bond_style fene/omp
Setting up Verlet run ...
  Unit style    : lj
  Current step  : 0
  Time step     : 0.005
Per MPI rank memory allocation (min/avg/max) = 18.33 | 22.83 | 33.53 Mbytes
   Step          Temp          PotEng         KinEng         TotEng         Press          Volume           Lx             Ly             Lz      
         0   0.55025191    -1.4365482      0.82537672    -0.61117152     27.280983      493970.4       66             66             113.4        
      1000   0.78698413    -1.5995249      1.1804746     -0.4190503      1.6848898      703467.27      74.254867      74.254867      127.58336    
Loop time of 763.148 on 80 procs for 1000 steps with 722171 atoms

Performance: 566.076 tau/day, 1.310 timesteps/s, 946.305 katom-step/s
19.9% CPU use with 80 MPI tasks x 1 OpenMP threads

MPI task timing breakdown:
Section |  min time  |  avg time  |  max time  |%varavg| %total
---------------------------------------------------------------
Pair    | 33.645     | 36.492     | 40.812     |  29.4 |  4.78
Bond    | 0.02687    | 0.52402    | 1.686      |  53.0 |  0.07
Neigh   | 86.728     | 89.941     | 92.95      |  15.7 | 11.79
Comm    | 191.27     | 204.66     | 223.76     |  57.7 | 26.82
Output  | 0.29997    | 0.33117    | 0.39997    |   2.8 |  0.04
Modify  | 330.56     | 344.16     | 355.36     |  35.2 | 45.10
Other   |            | 87.04      |            |       | 11.41

Nlocal:        9027.14 ave       11532 max        7381 min
Histogram: 48 0 0 0 0 0 0 0 2 30
Nghost:        22996.2 ave       32040 max       16869 min
Histogram: 48 0 0 0 0 0 0 0 0 32
Neighs:         280736 ave      295613 max      263864 min
Histogram: 15 1 1 4 5 18 11 11 6 8

Total # of neighbors = 22458888
Ave neighs/atom = 31.099127
Ave special neighs/atom = 0.31903801
Neighbor list builds = 228
Dangerous builds = 0
Generated 0 of 10 mixed pair_coeff terms from geometric mixing rule
Last active /omp style is bond_style fene/omp
Setting up Verlet run ...
  Unit style    : lj
  Current step  : 1000
  Time step     : 0.005
Per MPI rank memory allocation (min/avg/max) = 18.34 | 22.84 | 33.54 Mbytes
   Step          Temp          PotEng         KinEng         TotEng         Press          Volume           Lx             Ly             Lz      
      1000   0.78698413    -1.5995249      1.1804746     -0.4190503      1.6848898      703467.27      74.254867      74.254867      127.58336    
