======================================
Working directory: /jet/home/dpollard/Documents/lammps_runs/slab_with_support_slab_support_5beads_tall_3_1.0_1.4_20260127_210445
Trajectory directory (scratch): /ocean/projects/chm250028p/dpollard/lammps_trajectories/slab_with_support_slab_support_5beads_tall_3_1.0_1.4_20260127_210445
======================================
Running LAMMPS in slab_with_support with:
  dataname=slab_support_5beads_tall_3
  epsSS=1.0, epsSP=1.4
  nsteps=2000000, oldsteps=0, totsteps=2000000
SLURM tasks per node: 120
SLURM CPUs per task: 1
SLURM_GPUS_ON_NODE: 
GPUs allocated: 
Running CPU-only with 600 tasks
LAMMPS (22 Jul 2025)
OMP_NUM_THREADS environment is not set. Defaulting to 1 thread.
  using 1 OpenMP thread(s) per MPI task
using multi-threaded neighbor list subroutines
Reading data file ...
  orthogonal box = (0 0 0) to (69.6 69.6 100.8)
  6 by 10 by 10 MPI processor grid
  reading atoms ...
  758308 atoms
  scanning bonds ...
  3 = max bonds/atom
  orthogonal box = (0 0 0) to (69.6 69.6 100.8)
  6 by 10 by 10 MPI processor grid
  reading bonds ...
  147456 bonds
Finding 1-2 1-3 1-4 neighbors ...
  special bond factors lj:    0        0        0       
  special bond factors coul:  0        0        0       
     4 = max # of 1-2 neighbors
     4 = max # of 1-3 neighbors
     8 = max # of 1-4 neighbors
    12 = max # of special neighbors
  special bonds CPU = 102.624 seconds
  read_data CPU = 108.336 seconds
>>> is_restart = 0
>>> Previous    # of timesteps: 0
>>> Current     # of timesteps: 2000000
>>> Cumulative  # of timesteps: 2000000
130121 atoms in group polymer
488291 atoms in group solvent
69948 atoms in group support
69948 atoms in group piston
618412 atoms in group mobile
270017 atoms in group polymer_and_support
Finding 1-2 1-3 1-4 neighbors ...
  special bond factors lj:    0        1        1       
  special bond factors coul:  0        1        1       
     4 = max # of 1-2 neighbors
    12 = max # of special neighbors
  special bonds CPU = 0.054 seconds
Generated 0 of 10 mixed pair_coeff terms from geometric mixing rule
Last active /omp style is bond_style fene/omp
Neighbor list info ...
  update: every = 1 steps, delay = 0 steps, check = yes
  max neighbors/atom: 2000, page size: 100000
  master list distance cutoff = 2.8
  ghost atom cutoff = 5
  binsize = 1.4, bins = 50 50 72
  1 neighbor lists, perpetual/occasional/extra = 1 0 0
  (1) pair lj/cut/omp, perpetual
      attributes: half, newton on, omp
      pair build: half/bin/newton/omp
      stencil: half/bin/3d
      bin: standard
Setting up cg style minimization ...
  Unit style    : lj
  Current step  : 0
Per MPI rank memory allocation (min/avg/max) = 11.32 | 13.23 | 20.19 Mbytes
   Step          Temp          E_pair         E_mol          TotEng         Press     
         0   0              4.2456282e+19  17783.599      4.2456282e+19  2.6373549e+20
      3569   0             -4.6780877      4.3240199     -0.35406777     33.557078    
Loop time of 26.5035 on 600 procs for 3569 steps with 758308 atoms

99.4% CPU use with 600 MPI tasks x 1 OpenMP threads

Minimization stats:
  Stopping criterion = energy tolerance
  Energy initial, next-to-last, final = 
    4.24562822224367e+19 -0.354032943856236 -0.354067765626751
  Force two-norm initial, final = 4.1841555e+28 370.15784
  Force max component initial, final = 1.8345142e+28 152.25879
  Final line search alpha, max atom move = 0.0032427539 0.49373779
  Iterations, force evaluations = 3569 4194

MPI task timing breakdown:
Section |  min time  |  avg time  |  max time  |%varavg| %total
---------------------------------------------------------------
Pair    | 3.638      | 5.5001     | 10.977     |  52.8 | 20.75
Bond    | 0.003299   | 0.047427   | 0.12569    |  21.0 |  0.18
Neigh   | 9.3106     | 9.742      | 10.163     |   6.8 | 36.76
Comm    | 2.97       | 5.8292     | 8.1155     |  39.2 | 21.99
Output  | 0          | 0          | 0          |   0.0 |  0.00
Modify  | 0.041324   | 0.06778    | 0.12866    |   6.8 |  0.26
Other   |            | 5.317      |            |       | 20.06

Nlocal:        1263.85 ave        2242 max         987 min
Histogram: 480 0 0 0 0 0 0 0 0 120
Nghost:          10174 ave       17843 max        8018 min
Histogram: 480 0 0 0 0 0 0 0 0 120
Neighs:        61022.6 ave       66123 max       56318 min
Histogram: 33 70 77 62 53 50 137 86 14 18

Total # of neighbors = 36613536
Ave neighs/atom = 48.283199
Ave special neighs/atom = 0.38890794
Neighbor list builds = 840
Dangerous builds = 24
Generated 0 of 10 mixed pair_coeff terms from geometric mixing rule
Last active /omp style is bond_style fene/omp
Setting up Verlet run ...
  Unit style    : lj
  Current step  : 0
  Time step     : 0.001
Per MPI rank memory allocation (min/avg/max) = 10.23 | 11.9 | 17.96 Mbytes
   Step          Temp          PotEng         KinEng         TotEng         Press          Volume           Lx             Ly             Lz      
         0   0.081551535   -0.35406777     0.12232714    -0.23174062     33.683726      488291.33      69.6           69.6           100.8        
      1000   0.53616906     0.4195084      0.80425253     1.2237609      39.866966      488291.33      69.6           69.6           100.8        
Loop time of 2.20189 on 600 procs for 1000 steps with 758308 atoms

Performance: 39238.936 tau/day, 454.154 timesteps/s, 344.389 Matom-step/s
99.5% CPU use with 600 MPI tasks x 1 OpenMP threads

MPI task timing breakdown:
Section |  min time  |  avg time  |  max time  |%varavg| %total
---------------------------------------------------------------
Pair    | 0.69578    | 0.76158    | 0.84603    |   3.6 | 34.59
Bond    | 0.00059364 | 0.0038812  | 0.0085967  |   4.8 |  0.18
Neigh   | 0.20033    | 0.20975    | 0.22053    |   1.2 |  9.53
Comm    | 0.70583    | 0.89995    | 1.1359     |  10.9 | 40.87
Output  | 9.1722e-05 | 0.00047083 | 0.00082857 |   0.0 |  0.02
Modify  | 0.070534   | 0.07954    | 0.096519   |   1.9 |  3.61
Other   |            | 0.2467     |            |       | 11.20

Nlocal:        1263.85 ave        2235 max         991 min
Histogram: 480 0 0 0 0 0 0 0 0 120
Nghost:        10175.8 ave       17837 max        8044 min
Histogram: 480 0 0 0 0 0 0 0 0 120
Neighs:        60920.9 ave       66074 max       56172 min
Histogram: 14 59 96 67 63 67 144 62 10 18

Total # of neighbors = 36552518
Ave neighs/atom = 48.202733
Ave special neighs/atom = 0.38890794
Neighbor list builds = 19
Dangerous builds = 0
Generated 0 of 10 mixed pair_coeff terms from geometric mixing rule
Last active /omp style is bond_style fene/omp
Setting up Verlet run ...
  Unit style    : lj
  Current step  : 0
  Time step     : 0.005
Per MPI rank memory allocation (min/avg/max) = 10.23 | 11.9 | 17.96 Mbytes
   Step          Temp          PotEng         KinEng         TotEng         Press          Volume           Lx             Ly             Lz      
         0   0.53616906     0.4195084      0.80425253     1.2237609      39.866966      488291.33      69.6           69.6           100.8        
      1000   0.77831589    -0.54281268     1.1674723      0.62465961     1.7327288      709283.76      78.823596      78.823596      114.15831    
Loop time of 4.37095 on 600 procs for 1000 steps with 758308 atoms

Performance: 98834.330 tau/day, 228.783 timesteps/s, 173.488 Matom-step/s
99.3% CPU use with 600 MPI tasks x 1 OpenMP threads

MPI task timing breakdown:
Section |  min time  |  avg time  |  max time  |%varavg| %total
---------------------------------------------------------------
Pair    | 0.52709    | 0.58839    | 0.69534    |   4.3 | 13.46
Bond    | 0.00095362 | 0.0076297  | 0.023307   |   6.8 |  0.17
Neigh   | 2.0895     | 2.1851     | 2.3366     |   3.5 | 49.99
Comm    | 0.76441    | 1.0091     | 1.2579     |  12.1 | 23.09
Output  | 8.9618e-05 | 0.00010188 | 0.00024916 |   0.0 |  0.00
Modify  | 0.36535    | 0.52644    | 0.69648    |  11.6 | 12.04
Other   |            | 0.05422    |            |       |  1.24

Nlocal:        1263.85 ave        2275 max         971 min
Histogram: 480 0 0 0 0 0 0 0 10 110
Nghost:        8349.44 ave       15148 max        6414 min
Histogram: 480 0 0 0 0 0 0 0 0 120
Neighs:        40010.9 ave       45268 max       36081 min
Histogram: 31 109 113 89 34 17 65 90 36 16

Total # of neighbors = 24006551
Ave neighs/atom = 31.658048
Ave special neighs/atom = 0.38890794
Neighbor list builds = 230
Dangerous builds = 0
Generated 0 of 10 mixed pair_coeff terms from geometric mixing rule
Last active /omp style is bond_style fene/omp
Setting up Verlet run ...
  Unit style    : lj
  Current step  : 1000
  Time step     : 0.005
Per MPI rank memory allocation (min/avg/max) = 10.24 | 11.91 | 17.96 Mbytes
   Step          Temp          PotEng         KinEng         TotEng         Press          Volume           Lx             Ly             Lz      
      1000   0.77831589    -0.54281268     1.1674723      0.62465961     1.7327288      709283.76      78.823596      78.823596      114.15831    
    100000   0.87472663    -0.1289301      1.3120882      1.1831581      0.99762604     781370.44      81.408277      81.408277      117.90164    
    200000   0.88612769    -0.11821255     1.3291898      1.2109772      1.0073467      783229.71      81.472796      81.472796      117.99508    
    300000   0.89211812    -0.11621037     1.3381754      1.221965       1.0061566      783659.66      81.487701      81.487701      118.01667    
    400000   0.8962126     -0.11126234     1.3443171      1.2330548      1.0058345      784394.94      81.513179      81.513179      118.05357    
    500000   0.89782287    -0.1091569      1.3467325      1.2375756      0.99974342     785076.94      81.536796      81.536796      118.08777    
    600000   0.89780757    -0.1131263      1.3467096      1.2335833      0.99188713     784562.15      81.51897       81.51897       118.06196    
    700000   0.89928722    -0.11006784     1.3489291      1.2388612      1.0000001      784911.23      81.531059      81.531059      118.07946    
    800000   0.90068943    -0.11433361     1.3510324      1.2366988      1.0082543      784349.08      81.51159       81.51159       118.05127    
    900000   0.90201948    -0.11217293     1.3530274      1.2408545      1.0201901      784190.27      81.506089      81.506089      118.0433     
   1000000   0.90362497    -0.11433515     1.3554357      1.2411005      1.0078854      784294.32      81.509693      81.509693      118.04852    
   1100000   0.90345885    -0.11338283     1.3551865      1.2418037      0.99566224     784552.67      81.518642      81.518642      118.06148    
   1200000   0.90124148    -0.11554093     1.3518604      1.2363195      1.0054257      783905.42      81.496218      81.496218      118.02901    
   1300000   0.90230314    -0.11686906     1.3534529      1.2365839      0.99618238     783677.09      81.488305      81.488305      118.01755    
   1400000   0.90238342    -0.1147527      1.3535733      1.2388206      1.002784       784090.87      81.502645      81.502645      118.03831    
   1500000   0.90263262    -0.11900617     1.3539471      1.234941       0.9922884      783753.58      81.490957      81.490957      118.02139    
   1600000   0.9042982     -0.11993966     1.3564455      1.2365059      1.0018694      783502.04      81.482237      81.482237      118.00876    
   1700000   0.90386653    -0.12007578     1.355798       1.2357222      1.0112029      783256.15      81.473713      81.473713      117.99641    
   1800000   0.90250675    -0.12112282     1.3537583      1.2326355      1.001623       783234.93      81.472977      81.472977      117.99535    
   1900000   0.9044804     -0.12043544     1.3567188      1.2362834      1.0071436      783472.58      81.481216      81.481216      118.00728    
   2000000   0.90264963    -0.11949103     1.3539727      1.2344816      0.97328362     784056.7       81.501461      81.501461      118.0366     
   2001000   0.90359006    -0.1220352      1.3553833      1.2333481      0.99390023     783472         81.481196      81.481196      118.00725    
Loop time of 6380.38 on 600 procs for 2000000 steps with 758308 atoms

Performance: 135415.229 tau/day, 313.461 timesteps/s, 237.700 Matom-step/s
99.4% CPU use with 600 MPI tasks x 1 OpenMP threads

MPI task timing breakdown:
Section |  min time  |  avg time  |  max time  |%varavg| %total
---------------------------------------------------------------
Pair    | 725.28     | 919.75     | 1066.1     | 310.8 | 14.42
Bond    | 1.7543     | 14.453     | 25.602     | 203.1 |  0.23
Neigh   | 2583.3     | 2715.1     | 2869       | 130.2 | 42.55
Comm    | 1394.2     | 1767.1     | 2325.6     | 507.0 | 27.70
Output  | 0.1071     | 0.51735    | 1.4316     |  65.0 |  0.01
Modify  | 599.17     | 895.5      | 1282.8     | 527.2 | 14.04
Other   |            | 67.97      |            |       |  1.07

Nlocal:        1263.85 ave        2240 max         898 min
Histogram: 135 345 0 0 0 0 0 0 42 78
Nghost:        7903.03 ave       14258 max        5736 min
Histogram: 290 190 0 0 0 0 0 0 0 120
Neighs:        36445.9 ave       41585 max       28355 min
Histogram: 46 70 5 6 27 53 98 103 133 59

Total # of neighbors = 21867559
Ave neighs/atom = 28.837305
Ave special neighs/atom = 0.38890794
Neighbor list builds = 344901
Dangerous builds = 0
System init for write_restart ...
Generated 0 of 10 mixed pair_coeff terms from geometric mixing rule
Last active /omp style is bond_style fene/omp
System init for write_data ...
Generated 0 of 10 mixed pair_coeff terms from geometric mixing rule
Last active /omp style is bond_style fene/omp
WARNING: Not all mixed pair coeffs generated from mixing. Use write_data with 'pair ij' option to store all pair coeffs. (src/write_data.cpp:364)
Total wall time: 1:48:44
======================================
Running post-processing...
======================================
Generating convergence plot...
Plot saved to ./output_plots/convergence_plots/slab_support_5beads_tall_3_1.0_1.4_2000000_convergence.png
Generating stress profiles...
No stress data found for slab_support_5beads_tall_3_1.0_1.4_2000000, skipping stress plots
No volume data found for slab_support_5beads_tall_3_1.0_1.4_2000000, skipping volume fraction plots
Generating piston plots...
Error: Piston position file not found: ./output_files/piston_data/piston_position_slab_support_5beads_tall_3_1.0_1.4_2000000.dat
Generating computational efficiency plot...
Found data file: ./data_files/slab_support_5beads_tall_3.data
Mobile atoms: 618410
Tracking info written to /jet/home/dpollard/Documents/lammps_work/tracking.txt
Saved /jet/home/dpollard/Documents/lammps_work/time_vs_atoms.png
Saved /jet/home/dpollard/Documents/lammps_work/time_vs_timesteps.png
======================================
Done! Results are in: /jet/home/dpollard/Documents/lammps_runs/slab_with_support_slab_support_5beads_tall_3_1.0_1.4_20260127_210445
======================================
