======================================
Working directory: /home/dpollard/Documents/lammps_runs/slab_with_support_slab_support_5beads_tall_4_1.0_1.05_20260302_181631
Trajectory directory (scratch): /expanse/lustre/scratch/dpollard/temp_project/lammps_trajectories/slab_with_support_slab_support_5beads_tall_4_1.0_1.05_20260302_181631
======================================
Running LAMMPS in slab_with_support with:
  dataname=slab_support_5beads_tall_4
  epsSS=1.0, epsSP=1.05
  nsteps=150000, oldsteps=0, totsteps=150000
SLURM tasks per node: 120
SLURM CPUs per task: 1
SLURM_GPUS_ON_NODE: 
GPUs allocated: 
Running CPU-only with 600 tasks
LAMMPS (10 Mar 2021)
  using 1 OpenMP thread(s) per MPI task
Reading data file ...
  orthogonal box = (0.0000000 0.0000000 0.0000000) to (66.000000 66.000000 113.40000)
  5 by 8 by 15 MPI processor grid
  reading atoms ...
  722171 atoms
  scanning bonds ...
  3 = max bonds/atom
  reading bonds ...
  115200 bonds
Finding 1-2 1-3 1-4 neighbors ...
  special bond factors lj:    0        0        0       
  special bond factors coul:  0        0        0       
     4 = max # of 1-2 neighbors
     4 = max # of 1-3 neighbors
     8 = max # of 1-4 neighbors
    12 = max # of special neighbors
  special bonds CPU = 154.046 seconds
  read_data CPU = 226.230 seconds
>>> is_restart = 0
>>> Previous    # of timesteps: 0
>>> Current     # of timesteps: 150000
>>> Cumulative  # of timesteps: 150000
101759 atoms in group polymer
493970 atoms in group solvent
63221 atoms in group support
63221 atoms in group piston
595729 atoms in group mobile
228201 atoms in group polymer_and_support
Finding 1-2 1-3 1-4 neighbors ...
  special bond factors lj:    0        1        1       
  special bond factors coul:  0        1        1       
     4 = max # of 1-2 neighbors
    12 = max # of special neighbors
  special bonds CPU = 66.024 seconds
WARNING: Using 'neigh_modify every 1 delay 0 check yes' setting during minimization (src/src/min.cpp:188)
Neighbor list info ...
  update every 1 steps, delay 0 steps, check yes
  max neighbors/atom: 2000, page size: 100000
  master list distance cutoff = 2.8
  ghost atom cutoff = 5
  binsize = 1.4, bins = 48 48 81
  1 neighbor lists, perpetual/occasional/extra = 1 0 0
  (1) pair lj/cut, perpetual
      attributes: half, newton on
      pair build: half/bin/newton
      stencil: half/bin/3d/newton
      bin: standard
Setting up cg style minimization ...
  Unit style    : lj
  Current step  : 0
Per MPI rank memory allocation (min/avg/max) = 11.25 | 12.51 | 19.75 Mbytes
Step Temp E_pair E_mol TotEng Press 
       0            0 3.000002e+19    1615.3881 3.000002e+19 1.7543678e+20 
    1444            0   -4.8399304    2.7995907   -2.0403397    22.509477 
Loop time of 5350.56 on 600 procs for 1444 steps with 722171 atoms

6.6% CPU use with 600 MPI tasks x 1 OpenMP threads

Minimization stats:
  Stopping criterion = energy tolerance
  Energy initial, next-to-last, final = 
    3.00000195977047e+19  -2.04015378995334  -2.04033967002236
  Force two-norm initial, final = 4.1572840e+28 947.55260
  Force max component initial, final = 1.9995556e+28 356.60081
  Final line search alpha, max atom move = 0.00018527677 0.066069845
  Iterations, force evaluations = 1444 1559

MPI task timing breakdown:
Section |  min time  |  avg time  |  max time  |%varavg| %total
---------------------------------------------------------------
Pair    | 0.9497     | 2.0983     | 6.4641     |  71.5 |  0.04
Bond    | 0.00073569 | 0.037472   | 0.7417     |  40.4 |  0.00
Neigh   | 125.68     | 153.37     | 166.07     |  57.2 |  2.87
Comm    | 695.9      | 766.41     | 942.18     | 138.7 | 14.32
Output  | 0          | 0          | 0          |   0.0 |  0.00
Modify  | 0.0023207  | 0.0042813  | 0.23555    |  16.1 |  0.00
Other   |            | 4429       |            |       | 82.77

Nlocal:        1203.62 ave        2590 max         859 min
Histogram: 362 158 0 0 0 0 0 0 0 80
Nghost:        9408.95 ave       18689 max        7029 min
Histogram: 307 213 0 0 0 0 0 0 0 80
Neighs:        55714.6 ave       66460 max       40554 min
Histogram: 11 27 52 54 55 80 101 104 81 35

Total # of neighbors = 33428750
Ave neighs/atom = 46.289245
Ave special neighs/atom = 0.31903801
Neighbor list builds = 292
Dangerous builds = 14
Setting up Verlet run ...
  Unit style    : lj
  Current step  : 0
  Time step     : 0.001
Per MPI rank memory allocation (min/avg/max) = 10.13 | 11.25 | 17.61 Mbytes
Step Temp PotEng KinEng TotEng Press Volume Lx Ly Lz 
       0   0.08249138   -2.0403397    0.1237369   -1.9166028    22.630077     493970.4           66           66        113.4 
    1000   0.56665198    -1.334146    0.8499768  -0.48416924    28.083825     493970.4           66           66        113.4 
Loop time of 745.507 on 600 procs for 1000 steps with 722171 atoms

Performance: 115.894 tau/day, 1.341 timesteps/s
6.6% CPU use with 600 MPI tasks x 1 OpenMP threads

MPI task timing breakdown:
Section |  min time  |  avg time  |  max time  |%varavg| %total
---------------------------------------------------------------
Pair    | 0.53613    | 0.72289    | 0.8626     |   8.1 |  0.10
Bond    | 0.00032942 | 0.0036515  | 0.0079763  |   4.2 |  0.00
Neigh   | 9.4098     | 11.375     | 12.631     |  15.5 |  1.53
Comm    | 359.52     | 396.6      | 479.03     |  90.0 | 53.20
Output  | 1.319      | 1.4682     | 1.6186     |   3.8 |  0.20
Modify  | 0.049973   | 0.08115    | 1.2347     |  36.4 |  0.01
Other   |            | 335.3      |            |       | 44.97

Nlocal:        1203.62 ave        2598 max         888 min
Histogram: 517 3 0 0 0 0 0 0 0 80
Nghost:        9410.29 ave       18660 max        7255 min
Histogram: 491 29 0 0 0 0 0 0 0 80
Neighs:        55587.3 ave       64150 max       43823 min
Histogram: 12 33 54 53 53 68 103 111 88 25

Total # of neighbors = 33352351
Ave neighs/atom = 46.183454
Ave special neighs/atom = 0.31903801
Neighbor list builds = 21
Dangerous builds = 0
Setting up Verlet run ...
  Unit style    : lj
  Current step  : 0
  Time step     : 0.005
Per MPI rank memory allocation (min/avg/max) = 10.13 | 11.25 | 17.61 Mbytes
Step Temp PotEng KinEng TotEng Press Volume Lx Ly Lz 
       0   0.56665198    -1.334146    0.8499768  -0.48416924    28.083825     493970.4           66           66        113.4 
    1000   0.78978258   -1.5927558    1.1846722  -0.40808355    1.6685603    704384.02    74.287109    74.287109    127.63876 
Loop time of 2243.41 on 600 procs for 1000 steps with 722171 atoms

Performance: 192.564 tau/day, 0.446 timesteps/s
6.6% CPU use with 600 MPI tasks x 1 OpenMP threads

MPI task timing breakdown:
Section |  min time  |  avg time  |  max time  |%varavg| %total
---------------------------------------------------------------
Pair    | 0.50336    | 0.57205    | 0.67802    |   3.8 |  0.03
Bond    | 0.00036436 | 0.0051117  | 0.065637   |   5.9 |  0.00
Neigh   | 42.818     | 52.643     | 56.98      |  33.6 |  2.35
Comm    | 400.17     | 442.78     | 543.02     | 108.9 | 19.74
Output  | 1.856      | 1.9205     | 1.985      |   1.7 |  0.09
Modify  | 1610.6     | 1702.4     | 1743       |  50.2 | 75.88
Other   |            | 43.14      |            |       |  1.92

Nlocal:        1203.62 ave        2619 max         935 min
Histogram: 520 0 0 0 0 0 0 0 0 80
Nghost:        7777.55 ave       16029 max        6190 min
Histogram: 520 0 0 0 0 0 0 0 0 80
Neighs:        37379.5 ave       40918 max       33372 min
Histogram: 10 38 74 56 84 77 89 104 55 13

Total # of neighbors = 22427697
Ave neighs/atom = 31.055937
Ave special neighs/atom = 0.31903801
Neighbor list builds = 100
Dangerous builds = 100
Setting up Verlet run ...
  Unit style    : lj
  Current step  : 1000
  Time step     : 0.005
Per MPI rank memory allocation (min/avg/max) = 10.14 | 11.25 | 17.61 Mbytes
Step Temp PotEng KinEng TotEng Press Volume Lx Ly Lz 
    1000   0.78978258   -1.5927558    1.1846722  -0.40808355    1.6685603    704384.02    74.287109    74.287109    127.63876 
