======================================
Working directory: /jet/home/dpollard/Documents/lammps_runs/slab_with_support_slab_support_5beads_10x10x5_rho6_extra_padding43_1.5_1.4_20260104_140414
Trajectory directory (scratch): /ocean/projects/chm250028p/dpollard/lammps_trajectories/slab_with_support_slab_support_5beads_10x10x5_rho6_extra_padding43_1.5_1.4_20260104_140414
======================================
Running LAMMPS in slab_with_support with:
  dataname=slab_support_5beads_10x10x5_rho6_extra_padding43
  epsSS=1.5, epsSP=1.4
  nsteps=20000, oldsteps=0, totsteps=20000
SLURM tasks per node: 120
SLURM CPUs per task: 1
SLURM_GPUS_ON_NODE: 
GPUs allocated: 
Running CPU-only with 360 tasks
LAMMPS (22 Jul 2025)
OMP_NUM_THREADS environment is not set. Defaulting to 1 thread.
  using 1 OpenMP thread(s) per MPI task
using multi-threaded neighbor list subroutines
Reading data file ...
  orthogonal box = (0 0 0) to (87 87 55.5)
  8 by 9 by 5 MPI processor grid
  reading atoms ...
  766478 atoms
  scanning bonds ...
  3 = max bonds/atom
  orthogonal box = (0 0 0) to (87 87 55.5)
  8 by 9 by 5 MPI processor grid
  reading bonds ...
  144000 bonds
Finding 1-2 1-3 1-4 neighbors ...
  special bond factors lj:    0        0        0       
  special bond factors coul:  0        0        0       
     4 = max # of 1-2 neighbors
     4 = max # of 1-3 neighbors
     8 = max # of 1-4 neighbors
    12 = max # of special neighbors
  special bonds CPU = 0.115 seconds
  read_data CPU = 6.111 seconds
>>> is_restart = 0
>>> Previous    # of timesteps: 0
>>> Current     # of timesteps: 20000
>>> Cumulative  # of timesteps: 20000
127091 atoms in group polymer
420079 atoms in group solvent
109654 atoms in group support
109654 atoms in group piston
547170 atoms in group mobile
346399 atoms in group polymer_and_support
Finding 1-2 1-3 1-4 neighbors ...
  special bond factors lj:    0        1        1       
  special bond factors coul:  0        1        1       
     4 = max # of 1-2 neighbors
    12 = max # of special neighbors
  special bonds CPU = 0.047 seconds
Generated 0 of 10 mixed pair_coeff terms from geometric mixing rule
Last active /omp style is bond_style fene/omp
Neighbor list info ...
  update: every = 1 steps, delay = 0 steps, check = yes
  max neighbors/atom: 2000, page size: 100000
  master list distance cutoff = 2.8
  ghost atom cutoff = 5
  binsize = 1.4, bins = 63 63 40
  1 neighbor lists, perpetual/occasional/extra = 1 0 0
  (1) pair lj/cut/omp, perpetual
      attributes: half, newton on, omp
      pair build: half/bin/newton/omp
      stencil: half/bin/3d
      bin: standard
Setting up cg style minimization ...
  Unit style    : lj
  Current step  : 0
Per MPI rank memory allocation (min/avg/max) = 11.43 | 15.33 | 20.44 Mbytes
   Step          Temp          E_pair         E_mol          TotEng         Press     
         0   0              5.4656452e+18  17181.681      5.4656452e+18  3.9890514e+19
      3041   0             -4.6140422      4.2555037     -0.35853846     56.034715    
Loop time of 30.2342 on 360 procs for 3041 steps with 766478 atoms

99.3% CPU use with 360 MPI tasks x 1 OpenMP threads

Minimization stats:
  Stopping criterion = energy tolerance
  Energy initial, next-to-last, final = 
    5.46564523121817e+18 -0.358505411022124 -0.358538459081587
  Force two-norm initial, final = 5.1165644e+27 349.28306
  Force max component initial, final = 2.7623355e+27 88.979135
  Final line search alpha, max atom move = 0.00138948 0.12363473
  Iterations, force evaluations = 3041 3576

MPI task timing breakdown:
Section |  min time  |  avg time  |  max time  |%varavg| %total
---------------------------------------------------------------
Pair    | 4.7565     | 7.1144     | 13.64      |  61.5 | 23.53
Bond    | 0.002972   | 0.064445   | 0.18806    |  22.8 |  0.21
Neigh   | 10.174     | 10.529     | 11.006     |   5.6 | 34.83
Comm    | 3.6826     | 7.4408     | 12.155     |  57.0 | 24.61
Output  | 0          | 0          | 0          |   0.0 |  0.00
Modify  | 0.051501   | 0.11565    | 0.20783    |  10.7 |  0.38
Other   |            | 4.97       |            |       | 16.44

Nlocal:        2129.11 ave        3090 max        1468 min
Histogram: 216 0 0 0 0 0 0 0 0 144
Nghost:        13920.4 ave       20304 max        9520 min
Histogram: 216 0 0 0 0 0 0 0 0 144
Neighs:        92438.8 ave       97642 max       86609 min
Histogram: 12 26 46 72 23 17 26 67 50 21

Total # of neighbors = 33277967
Ave neighs/atom = 43.416728
Ave special neighs/atom = 0.37574464
Neighbor list builds = 698
Dangerous builds = 13
Generated 0 of 10 mixed pair_coeff terms from geometric mixing rule
Last active /omp style is bond_style fene/omp
Setting up Verlet run ...
  Unit style    : lj
  Current step  : 0
  Time step     : 0.001
Per MPI rank memory allocation (min/avg/max) = 10.34 | 13.78 | 18.19 Mbytes
   Step          Temp          PotEng         KinEng         TotEng         Press          Volume           Lx             Ly             Lz      
         0   0.07138753    -0.35853846     0.10708116    -0.2514573      56.164969      420079.5       87             87             55.5         
      1000   0.47025899     0.31900727     0.70538756     1.0243948      62.526465      420079.5       87             87             55.5         
Loop time of 3.13565 on 360 procs for 1000 steps with 766478 atoms

Performance: 27554.095 tau/day, 318.913 timesteps/s, 244.440 Matom-step/s
99.4% CPU use with 360 MPI tasks x 1 OpenMP threads

MPI task timing breakdown:
Section |  min time  |  avg time  |  max time  |%varavg| %total
---------------------------------------------------------------
Pair    | 1.052      | 1.1337     | 1.216      |   3.8 | 36.15
Bond    | 0.0006628  | 0.0059734  | 0.012113   |   5.9 |  0.19
Neigh   | 0.26129    | 0.26891    | 0.28084    |   0.9 |  8.58
Comm    | 0.9768     | 1.31       | 1.5623     |  14.4 | 41.78
Output  | 9.4859e-05 | 0.00035391 | 0.00090976 |   0.0 |  0.01
Modify  | 0.10098    | 0.11695    | 0.13703    |   2.7 |  3.73
Other   |            | 0.2998     |            |       |  9.56

Nlocal:        2129.11 ave        3096 max        1476 min
Histogram: 216 0 0 0 0 0 0 0 0 144
Nghost:        13920.4 ave       20306 max        9548 min
Histogram: 216 0 0 0 0 0 0 0 0 144
Neighs:        92361.6 ave       97536 max       87066 min
Histogram: 10 33 63 61 20 12 32 75 40 14

Total # of neighbors = 33250182
Ave neighs/atom = 43.380478
Ave special neighs/atom = 0.37574464
Neighbor list builds = 18
Dangerous builds = 0
Generated 0 of 10 mixed pair_coeff terms from geometric mixing rule
Last active /omp style is bond_style fene/omp
Setting up Verlet run ...
  Unit style    : lj
  Current step  : 0
  Time step     : 0.005
Per MPI rank memory allocation (min/avg/max) = 10.34 | 13.78 | 18.19 Mbytes
   Step          Temp          PotEng         KinEng         TotEng         Press          Volume           Lx             Ly             Lz      
         0   0.47025899     0.31900727     0.70538756     1.0243948      62.526465      420079.5       87             87             55.5         
      1000   0.69546462    -1.8164456      1.0431956     -0.77325002     1.4373651      603082.59      98.144889      98.144889      62.60967     
Loop time of 5.722 on 360 procs for 1000 steps with 766478 atoms

Performance: 75498.131 tau/day, 174.764 timesteps/s, 133.953 Matom-step/s
99.1% CPU use with 360 MPI tasks x 1 OpenMP threads

MPI task timing breakdown:
Section |  min time  |  avg time  |  max time  |%varavg| %total
---------------------------------------------------------------
Pair    | 0.7937     | 0.87809    | 0.97405    |   4.4 | 15.35
Bond    | 0.0009714  | 0.01156    | 0.035014   |   8.3 |  0.20
Neigh   | 2.7308     | 2.8132     | 2.9426     |   2.8 | 49.16
Comm    | 1.1183     | 1.4548     | 1.7041     |  14.2 | 25.43
Output  | 9.2964e-05 | 0.00011267 | 0.00073431 |   0.0 |  0.00
Modify  | 0.33332    | 0.52712    | 0.85289    |  19.1 |  9.21
Other   |            | 0.03711    |            |       |  0.65

Nlocal:        2129.11 ave        3096 max        1466 min
Histogram: 216 0 0 0 0 0 0 0 0 144
Nghost:        11631.2 ave       17233 max        7799 min
Histogram: 216 0 0 0 0 0 0 0 0 144
Neighs:        61045.4 ave       64820 max       57150 min
Histogram: 18 48 85 31 10 1 10 54 77 26

Total # of neighbors = 21976350
Ave neighs/atom = 28.67186
Ave special neighs/atom = 0.37574464
Neighbor list builds = 224
Dangerous builds = 0
Generated 0 of 10 mixed pair_coeff terms from geometric mixing rule
Last active /omp style is bond_style fene/omp
Setting up Verlet run ...
  Unit style    : lj
  Current step  : 1000
  Time step     : 0.005
Per MPI rank memory allocation (min/avg/max) = 10.35 | 13.78 | 18.19 Mbytes
   Step          Temp          PotEng         KinEng         TotEng         Press          Volume           Lx             Ly             Lz      
      1000   0.69546462    -1.8164456      1.0431956     -0.77325002     1.4373651      603082.59      98.144889      98.144889      62.60967     
     10000   0.75916922    -1.4784358      1.1387523     -0.33968342     1.0048805      632648.61      99.723216      99.723216      63.616534    
     20000   0.76693312    -1.456863       1.1503982     -0.30646481     1.0067099      634378.78      99.814041      99.814041      63.674475    
     21000   0.76571814    -1.454386       1.1485757     -0.30581024     0.98612941     634786.96      99.835444      99.835444      63.688128    
Loop time of 90.7692 on 360 procs for 20000 steps with 766478 atoms

Performance: 95186.424 tau/day, 220.339 timesteps/s, 168.885 Matom-step/s
99.2% CPU use with 360 MPI tasks x 1 OpenMP threads

MPI task timing breakdown:
Section |  min time  |  avg time  |  max time  |%varavg| %total
---------------------------------------------------------------
Pair    | 12.731     | 14.456     | 16.497     |  25.7 | 15.93
Bond    | 0.02082    | 0.21976    | 0.70011    |  36.5 |  0.24
Neigh   | 38.421     | 39.548     | 41.353     |  10.4 | 43.57
Comm    | 18.814     | 25.711     | 30.492     |  63.6 | 28.33
Output  | 0.091165   | 0.19014    | 0.31907    |  16.2 |  0.21
Modify  | 6.2116     | 9.9261     | 16.331     |  85.0 | 10.94
Other   |            | 0.7176     |            |       |  0.79

Nlocal:        2129.11 ave        3111 max        1439 min
Histogram: 216 0 0 0 0 0 0 0 1 143
Nghost:        11351.6 ave       16882 max        7488 min
Histogram: 216 0 0 0 0 0 0 0 0 144
Neighs:          58199 ave       63911 max       52959 min
Histogram: 28 96 61 7 0 0 9 50 93 16

Total # of neighbors = 20951627
Ave neighs/atom = 27.334936
Ave special neighs/atom = 0.37574464
Neighbor list builds = 3382
Dangerous builds = 0
System init for write_restart ...
Generated 0 of 10 mixed pair_coeff terms from geometric mixing rule
Last active /omp style is bond_style fene/omp
System init for write_data ...
Generated 0 of 10 mixed pair_coeff terms from geometric mixing rule
Last active /omp style is bond_style fene/omp
WARNING: Not all mixed pair coeffs generated from mixing. Use write_data with 'pair ij' option to store all pair coeffs. (src/write_data.cpp:364)
Total wall time: 0:02:18
======================================
Running post-processing...
======================================
Generating convergence plot...
Generating stress profiles...
No stress data found for slab_support_5beads_10x10x5_rho6_extra_padding43_1.5_1.4_20000, skipping stress plots
No volume data found for slab_support_5beads_10x10x5_rho6_extra_padding43_1.5_1.4_20000, skipping volume fraction plots
Generating computational efficiency plot...
Mobile atoms: 547168
Entry 'slab_support_5beads_10x10x5_rho6_extra_padding43_1.5_1.4_20000' already exists in tracking file, skipping.
Tracking info written to /jet/home/dpollard/Documents/lammps_work/tracking.txt
Saved /jet/home/dpollard/Documents/lammps_work/time_vs_atoms.png
Saved /jet/home/dpollard/Documents/lammps_work/time_vs_timesteps.png
======================================
Done! Results are in: /jet/home/dpollard/Documents/lammps_runs/slab_with_support_slab_support_5beads_10x10x5_rho6_extra_padding43_1.5_1.4_20260104_140414
======================================
