======================================
Working directory: /jet/home/dpollard/Documents/lammps_runs/slab_with_support_slab_support_tall_angle_2_1.0_1.4_20260203_014859
Trajectory directory (scratch): /ocean/projects/chm250028p/dpollard/lammps_trajectories/slab_with_support_slab_support_tall_angle_2_1.0_1.4_20260203_014859
======================================
Running LAMMPS in slab_with_support with:
  dataname=slab_support_tall_angle_2
  epsSS=1.0, epsSP=1.4
  nsteps=200000, oldsteps=0, totsteps=200000
SLURM tasks per node: 120
SLURM CPUs per task: 1
SLURM_GPUS_ON_NODE: 
GPUs allocated: 
Running CPU-only with 480 tasks
LAMMPS (22 Jul 2025)
OMP_NUM_THREADS environment is not set. Defaulting to 1 thread.
  using 1 OpenMP thread(s) per MPI task
using multi-threaded neighbor list subroutines
Reading data file ...
  orthogonal box = (0 0 0) to (66 66 92)
  6 by 8 by 10 MPI processor grid
  reading atoms ...
  623312 atoms
  scanning bonds ...
  3 = max bonds/atom
  scanning angles ...
  6 = max angles/atom
  orthogonal box = (0 0 0) to (66 66 92)
  6 by 8 by 10 MPI processor grid
  reading bonds ...
  108800 bonds
  reading angles ...
  159754 angles
Finding 1-2 1-3 1-4 neighbors ...
  special bond factors lj:    0        0        0       
  special bond factors coul:  0        0        0       
     4 = max # of 1-2 neighbors
     4 = max # of 1-3 neighbors
     8 = max # of 1-4 neighbors
    12 = max # of special neighbors
  special bonds CPU = 0.114 seconds
  read_data CPU = 5.735 seconds
>>> is_restart = 0
>>> Previous    # of timesteps: 0
>>> Current     # of timesteps: 200000
>>> Cumulative  # of timesteps: 200000
96118 atoms in group polymer
400752 atoms in group solvent
63221 atoms in group support
63221 atoms in group piston
496870 atoms in group mobile
222560 atoms in group polymer_and_support
Finding 1-2 1-3 1-4 neighbors ...
  special bond factors lj:    0        1        1       
  special bond factors coul:  0        1        1       
     4 = max # of 1-2 neighbors
    12 = max # of special neighbors
  special bonds CPU = 0.014 seconds
Generated 0 of 10 mixed pair_coeff terms from geometric mixing rule
Last active /omp style is angle_style harmonic
Neighbor list info ...
  update: every = 1 steps, delay = 0 steps, check = yes
  max neighbors/atom: 2000, page size: 100000
  master list distance cutoff = 2.8
  ghost atom cutoff = 5
  binsize = 1.4, bins = 48 48 66
  1 neighbor lists, perpetual/occasional/extra = 1 0 0
  (1) pair lj/cut/omp, perpetual
      attributes: half, newton on, omp
      pair build: half/bin/newton/omp
      stencil: half/bin/3d
      bin: standard
Setting up cg style minimization ...
  Unit style    : lj
  Current step  : 0
Per MPI rank memory allocation (min/avg/max) = 12.34 | 14.6 | 22.59 Mbytes
   Step          Temp          E_pair         E_mol          TotEng         Press     
         0   0              5.2746034e+18  15964.781      5.2746034e+18  3.2815543e+19
      1636   0             -4.2236273      13.365732      9.1421049      36.25541     
Loop time of 10.4283 on 480 procs for 1636 steps with 623312 atoms

99.3% CPU use with 480 MPI tasks x 1 OpenMP threads

Minimization stats:
  Stopping criterion = energy tolerance
  Energy initial, next-to-last, final = 
    5.27460341295068e+18   9.14292957741739   9.14210488179067
  Force two-norm initial, final = 4.5466275e+27 3789.2516
  Force max component initial, final = 2.2586278e+27 966.15516
  Final line search alpha, max atom move = 5.3359754e-05 0.051553801
  Iterations, force evaluations = 1636 1734

MPI task timing breakdown:
Section |  min time  |  avg time  |  max time  |%varavg| %total
---------------------------------------------------------------
Pair    | 1.2436     | 2.2407     | 4.1221     |  55.6 | 21.49
Bond    | 0.0039166  | 0.052457   | 0.1848     |  26.8 |  0.50
Neigh   | 3.6362     | 3.827      | 4.014      |   4.4 | 36.70
Comm    | 1.6644     | 2.8056     | 3.7825     |  31.2 | 26.90
Output  | 0          | 0          | 0          |   0.0 |  0.00
Modify  | 0.014939   | 0.029462   | 0.063441   |   6.0 |  0.28
Other   |            | 1.473      |            |       | 14.13

Nlocal:        1298.57 ave        2444 max         824 min
Histogram: 86 236 62 0 0 0 0 0 52 44
Nghost:        10070.6 ave       18546 max        6684 min
Histogram: 117 227 40 0 0 0 0 0 40 56
Neighs:        59894.5 ave       81978 max       36028 min
Histogram: 14 41 49 54 65 68 66 54 44 25

Total # of neighbors = 28749346
Ave neighs/atom = 46.123524
Ave special neighs/atom = 0.34910286
Neighbor list builds = 324
Dangerous builds = 16
Generated 0 of 10 mixed pair_coeff terms from geometric mixing rule
Last active /omp style is angle_style harmonic
Setting up Verlet run ...
  Unit style    : lj
  Current step  : 0
  Time step     : 0.001
Per MPI rank memory allocation (min/avg/max) = 11.22 | 13.29 | 20.72 Mbytes
   Step          Temp          PotEng         KinEng         TotEng         Press          Volume           Lx             Ly             Lz      
         0   0.07971446     9.1421049      0.1195715      9.2616764      36.379394      400752         66             66             92           
      1000   0.72563903     9.2336105      1.0884568      10.322067      38.418877      400752         66             66             92           
Loop time of 2.48116 on 480 procs for 1000 steps with 623312 atoms

Performance: 34822.398 tau/day, 403.037 timesteps/s, 251.218 Matom-step/s
99.4% CPU use with 480 MPI tasks x 1 OpenMP threads

MPI task timing breakdown:
Section |  min time  |  avg time  |  max time  |%varavg| %total
---------------------------------------------------------------
Pair    | 0.45605    | 0.736      | 0.9453     |  12.6 | 29.66
Bond    | 0.0016575  | 0.018948   | 0.052455   |  14.3 |  0.76
Neigh   | 0.32832    | 0.34262    | 0.35735    |   1.3 | 13.81
Comm    | 0.75551    | 0.95464    | 1.3221     |  14.9 | 38.48
Output  | 0.00010297 | 0.00056048 | 0.00099995 |   0.0 |  0.02
Modify  | 0.061137   | 0.080332   | 0.10203    |   2.5 |  3.24
Other   |            | 0.3481     |            |       | 14.03

Nlocal:        1298.57 ave        2395 max         874 min
Histogram: 108 276 0 0 0 0 0 0 10 86
Nghost:          10073 ave       18188 max        7057 min
Histogram: 161 223 0 0 0 0 0 0 2 94
Neighs:        59562.9 ave       69941 max       41276 min
Histogram: 8 11 15 35 45 72 73 87 99 35

Total # of neighbors = 28590212
Ave neighs/atom = 45.86822
Ave special neighs/atom = 0.34910286
Neighbor list builds = 29
Dangerous builds = 0
Generated 0 of 10 mixed pair_coeff terms from geometric mixing rule
Last active /omp style is angle_style harmonic
Setting up Verlet run ...
  Unit style    : lj
  Current step  : 0
  Time step     : 0.005
Per MPI rank memory allocation (min/avg/max) = 11.22 | 13.3 | 20.72 Mbytes
   Step          Temp          PotEng         KinEng         TotEng         Press          Volume           Lx             Ly             Lz      
         0   0.72563903     9.2336105      1.0884568      10.322067      38.418877      400752         66             66             92           
      1000   0.79883123     7.0874106      1.1982449      8.2856555      1.5469503      592820.89      75.201505      75.201505      104.82634    
Loop time of 4.57153 on 480 procs for 1000 steps with 623312 atoms

Performance: 94497.970 tau/day, 218.745 timesteps/s, 136.347 Matom-step/s
99.3% CPU use with 480 MPI tasks x 1 OpenMP threads

MPI task timing breakdown:
Section |  min time  |  avg time  |  max time  |%varavg| %total
---------------------------------------------------------------
Pair    | 0.50307    | 0.56502    | 0.63616    |   3.5 | 12.36
Bond    | 0.002644   | 0.029076   | 0.080558   |  16.0 |  0.64
Neigh   | 2.401      | 2.4971     | 2.5868     |   3.4 | 54.62
Comm    | 0.8095     | 0.99829    | 1.3031     |  13.6 | 21.84
Output  | 8.9288e-05 | 0.00010406 | 0.00014995 |   0.0 |  0.00
Modify  | 0.27664    | 0.4475     | 0.59381    |  12.9 |  9.79
Other   |            | 0.03443    |            |       |  0.75

Nlocal:        1298.57 ave        2418 max         988 min
Histogram: 384 0 0 0 0 0 0 0 3 93
Nghost:        8148.04 ave       15106 max        6274 min
Histogram: 384 0 0 0 0 0 0 0 0 96
Neighs:        38694.1 ave       42967 max       34605 min
Histogram: 7 13 35 80 116 109 78 27 11 4

Total # of neighbors = 18573166
Ave neighs/atom = 29.797543
Ave special neighs/atom = 0.34910286
Neighbor list builds = 238
Dangerous builds = 0
Generated 0 of 10 mixed pair_coeff terms from geometric mixing rule
Last active /omp style is angle_style harmonic
Setting up Verlet run ...
  Unit style    : lj
  Current step  : 1000
  Time step     : 0.005
Per MPI rank memory allocation (min/avg/max) = 11.23 | 13.31 | 20.72 Mbytes
   Step          Temp          PotEng         KinEng         TotEng         Press          Volume           Lx             Ly             Lz      
      1000   0.79883123     7.0874106      1.1982449      8.2856555      1.5469503      592820.89      75.201505      75.201505      104.82634    
     10000   0.83713089     6.9762353      1.2556943      8.2319296      0.98202365     625853.31      76.573098      76.573098      106.73826    
     20000   0.84337974     6.941812       1.2650676      8.2068796      0.99381154     626440.35      76.597032      76.597032      106.77162    
     30000   0.84456734     6.9234527      1.266849       8.1903017      0.99728127     626493.46      76.599197      76.599197      106.77464    
     40000   0.85068568     6.9126952      1.2760265      8.1887217      1.0269303      626752.9       76.609769      76.609769      106.78938    
     50000   0.85036328     6.9080527      1.2755429      8.1835956      1.0001555      627311.56      76.632524      76.632524      106.82109    
     60000   0.85430215     6.8984027      1.2814512      8.1798539      1.0222043      627350.71      76.634119      76.634119      106.82332    
     70000   0.85790438     6.8926693      1.2868545      8.1795238      0.99062589     627465.58      76.638796      76.638796      106.82984    
     80000   0.85706803     6.8894519      1.2856         8.1750519      0.99167431     627984.36      76.659911      76.659911      106.85927    
     90000   0.86222055     6.8799333      1.2933287      8.173262       0.99811084     627306.86      76.632333      76.632333      106.82083    
    100000   0.86284255     6.8790816      1.2942617      8.1733433      1.0055319      627714.76      76.64894       76.64894       106.84398    
    110000   0.86363909     6.8777395      1.2954566      8.1731961      1.0013337      628169.38      76.667439      76.667439      106.86976    
    120000   0.86520667     6.8686799      1.2978079      8.1664879      0.99873343     627700.7       76.648367      76.648367      106.84318    
    130000   0.86417224     6.8656442      1.2962563      8.1619005      1.0079254      627765.7       76.651013      76.651013      106.84687    
    140000   0.86709272     6.8650458      1.300637       8.1656828      1.0079664      628201.37      76.66874       76.66874       106.87158    
    150000   0.87053753     6.8600461      1.3058042      8.1658503      0.99977542     628277.51      76.671838      76.671838      106.8759     
    160000   0.86873298     6.8651299      1.3030974      8.1682272      0.99758589     628795.48      76.692902      76.692902      106.90526    
    170000   0.87174521     6.8586911      1.3076157      8.1663069      0.98634136     628469.2       76.679635      76.679635      106.88676    
    180000   0.87218486     6.8542343      1.3082752      8.1625095      1.0259847      627936.17      76.65795       76.65795       106.85654    
    190000   0.87345754     6.8505406      1.3101842      8.1607249      1.0031028      628098.74      76.664565      76.664565      106.86576    
    200000   0.87300309     6.8516686      1.3095025      8.1611711      1.0056854      628365.54      76.675419      76.675419      106.88089    
    201000   0.87485233     6.8510839      1.3122764      8.1633603      0.97256958     628627.74      76.686082      76.686082      106.89575    
Loop time of 692.51 on 480 procs for 200000 steps with 623312 atoms

Performance: 124763.541 tau/day, 288.804 timesteps/s, 180.015 Matom-step/s
99.3% CPU use with 480 MPI tasks x 1 OpenMP threads

MPI task timing breakdown:
Section |  min time  |  avg time  |  max time  |%varavg| %total
---------------------------------------------------------------
Pair    | 75.105     | 92.494     | 111.43     | 110.7 | 13.36
Bond    | 0.52522    | 5.6044     | 14.535     | 177.0 |  0.81
Neigh   | 291.88     | 305.03     | 319.51     |  40.4 | 44.05
Comm    | 133.15     | 176.35     | 238.96     | 185.0 | 25.46
Output  | 0.034684   | 0.2535     | 0.61783    |  36.8 |  0.04
Modify  | 71.161     | 105.73     | 149.75     | 176.8 | 15.27
Other   |            | 7.045      |            |       |  1.02

Nlocal:        1298.57 ave        2417 max         933 min
Histogram: 251 133 0 0 0 0 0 0 36 60
Nghost:        7911.86 ave       14620 max        5787 min
Histogram: 328 56 0 0 0 0 0 0 0 96
Neighs:        36727.5 ave       44349 max       29356 min
Histogram: 44 26 49 59 77 43 49 73 48 12

Total # of neighbors = 17629205
Ave neighs/atom = 28.283115
Ave special neighs/atom = 0.34910286
Neighbor list builds = 33993
Dangerous builds = 0
System init for write_restart ...
Generated 0 of 10 mixed pair_coeff terms from geometric mixing rule
Last active /omp style is angle_style harmonic
System init for write_data ...
Generated 0 of 10 mixed pair_coeff terms from geometric mixing rule
Last active /omp style is angle_style harmonic
WARNING: Not all mixed pair coeffs generated from mixing. Use write_data with 'pair ij' option to store all pair coeffs. (src/write_data.cpp:364)
Total wall time: 0:11:57
======================================
Running post-processing...
======================================
Generating convergence plot...
Plot saved to ./output_plots/convergence_plots/slab_support_tall_angle_2_1.0_1.4_200000_convergence.png
Generating stress profiles...
No stress data found for slab_support_tall_angle_2_1.0_1.4_200000, skipping stress plots
No volume data found for slab_support_tall_angle_2_1.0_1.4_200000, skipping volume fraction plots
Generating piston plots...
Error: Piston position file not found: ./output_files/piston_data/piston_position_slab_support_tall_angle_2_1.0_1.4_200000.dat
Generating computational efficiency plot...
Found data file: ./data_files/slab_support_tall_angle_2.data
Mobile atoms: 496866
Tracking info written to /jet/home/dpollard/Documents/lammps_work/tracking.txt
Saved /jet/home/dpollard/Documents/lammps_work/time_vs_atoms.png
Saved /jet/home/dpollard/Documents/lammps_work/time_vs_timesteps.png
======================================
Done! Results are in: /jet/home/dpollard/Documents/lammps_runs/slab_with_support_slab_support_tall_angle_2_1.0_1.4_20260203_014859
======================================
