======================================
Working directory: /jet/home/dpollard/Documents/lammps_runs/slab_with_support_slab_support_5beads_tall_3_1.0_1.05_20260212_200116
Trajectory directory (scratch): /ocean/projects/chm250028p/dpollard/lammps_trajectories/slab_with_support_slab_support_5beads_tall_3_1.0_1.05_20260212_200116
======================================
Running LAMMPS in slab_with_support with:
  dataname=slab_support_5beads_tall_3
  epsSS=1.0, epsSP=1.05
  nsteps=100000, oldsteps=0, totsteps=100000
SLURM tasks per node: 120
SLURM CPUs per task: 1
SLURM_GPUS_ON_NODE: 
GPUs allocated: 
Running CPU-only with 360 tasks
LAMMPS (22 Jul 2025)
OMP_NUM_THREADS environment is not set. Defaulting to 1 thread.
  using 1 OpenMP thread(s) per MPI task
using multi-threaded neighbor list subroutines
Reading data file ...
  orthogonal box = (0 0 0) to (69.6 69.6 100.8)
  6 by 6 by 10 MPI processor grid
  reading atoms ...
  758308 atoms
  scanning bonds ...
  3 = max bonds/atom
  orthogonal box = (0 0 0) to (69.6 69.6 100.8)
  6 by 6 by 10 MPI processor grid
  reading bonds ...
  147456 bonds
Finding 1-2 1-3 1-4 neighbors ...
  special bond factors lj:    0        0        0       
  special bond factors coul:  0        0        0       
     4 = max # of 1-2 neighbors
     4 = max # of 1-3 neighbors
     8 = max # of 1-4 neighbors
    12 = max # of special neighbors
  special bonds CPU = 0.124 seconds
  read_data CPU = 5.916 seconds
>>> is_restart = 0
>>> Previous    # of timesteps: 0
>>> Current     # of timesteps: 100000
>>> Cumulative  # of timesteps: 100000
130121 atoms in group polymer
488291 atoms in group solvent
69948 atoms in group support
69948 atoms in group piston
618412 atoms in group mobile
270017 atoms in group polymer_and_support
Finding 1-2 1-3 1-4 neighbors ...
  special bond factors lj:    0        1        1       
  special bond factors coul:  0        1        1       
     4 = max # of 1-2 neighbors
    12 = max # of special neighbors
  special bonds CPU = 0.057 seconds
Generated 0 of 10 mixed pair_coeff terms from geometric mixing rule
Last active /omp style is bond_style fene/omp
Neighbor list info ...
  update: every = 1 steps, delay = 0 steps, check = yes
  max neighbors/atom: 2000, page size: 100000
  master list distance cutoff = 2.8
  ghost atom cutoff = 5
  binsize = 1.4, bins = 50 50 72
  1 neighbor lists, perpetual/occasional/extra = 1 0 0
  (1) pair lj/cut/omp, perpetual
      attributes: half, newton on, omp
      pair build: half/bin/newton/omp
      stencil: half/bin/3d
      bin: standard
Setting up cg style minimization ...
  Unit style    : lj
  Current step  : 0
Per MPI rank memory allocation (min/avg/max) = 11.45 | 13.95 | 20.61 Mbytes
   Step          Temp          E_pair         E_mol          TotEng         Press     
         0   0              3.8275784e+19  17783.417      3.8275784e+19  2.3776653e+20
      3622   0             -4.2631559      3.4287449     -0.83441106     32.094715    
Loop time of 41.164 on 360 procs for 3622 steps with 758308 atoms

99.4% CPU use with 360 MPI tasks x 1 OpenMP threads

Minimization stats:
  Stopping criterion = energy tolerance
  Energy initial, next-to-last, final = 
    3.82757840481364e+19 -0.834333411098912 -0.834411063552234
  Force two-norm initial, final = 3.9606024e+28 481.24381
  Force max component initial, final = 1.8345142e+28 138.00138
  Final line search alpha, max atom move = 0.0011983647 0.16537598
  Iterations, force evaluations = 3622 4259

MPI task timing breakdown:
Section |  min time  |  avg time  |  max time  |%varavg| %total
---------------------------------------------------------------
Pair    | 6.2257     | 9.2942     | 17.295     |  68.4 | 22.58
Bond    | 0.003649   | 0.079669   | 0.21566    |  26.7 |  0.19
Neigh   | 15.9       | 16.492     | 17.037     |   8.1 | 40.06
Comm    | 5.0745     | 8.5797     | 16.547     |  79.5 | 20.84
Output  | 0          | 0          | 0          |   0.0 |  0.00
Modify  | 0.068453   | 0.14088    | 0.24882    |   9.6 |  0.34
Other   |            | 6.578      |            |       | 15.98

Nlocal:        2106.41 ave        3739 max        1652 min
Histogram: 288 0 0 0 0 0 0 0 0 72
Nghost:        12465.2 ave       21964 max        9825 min
Histogram: 288 0 0 0 0 0 0 0 0 72
Neighs:         101722 ave      111064 max       94251 min
Histogram: 24 59 30 36 35 63 81 16 4 12

Total # of neighbors = 36619900
Ave neighs/atom = 48.291591
Ave special neighs/atom = 0.38890794
Neighbor list builds = 922
Dangerous builds = 14
Generated 0 of 10 mixed pair_coeff terms from geometric mixing rule
Last active /omp style is bond_style fene/omp
Setting up Verlet run ...
  Unit style    : lj
  Current step  : 0
  Time step     : 0.001
Per MPI rank memory allocation (min/avg/max) = 10.36 | 12.72 | 18.36 Mbytes
   Step          Temp          PotEng         KinEng         TotEng         Press          Volume           Lx             Ly             Lz      
         0   0.081551535   -0.83441106     0.12232714    -0.71208392     32.221363      488291.33      69.6           69.6           100.8        
      1000   0.53625926    -0.056489022    0.80438783     0.74789881     38.441562      488291.33      69.6           69.6           100.8        
Loop time of 3.22781 on 360 procs for 1000 steps with 758308 atoms

Performance: 26767.352 tau/day, 309.807 timesteps/s, 234.929 Matom-step/s
99.4% CPU use with 360 MPI tasks x 1 OpenMP threads

MPI task timing breakdown:
Section |  min time  |  avg time  |  max time  |%varavg| %total
---------------------------------------------------------------
Pair    | 1.1509     | 1.2555     | 1.3958     |   4.6 | 38.90
Bond    | 0.00065243 | 0.0060493  | 0.01363    |   5.9 |  0.19
Neigh   | 0.3294     | 0.34117    | 0.3516     |   1.1 | 10.57
Comm    | 0.88462    | 1.1344     | 1.5135     |  14.4 | 35.15
Output  | 9.5299e-05 | 0.0010977  | 0.0015629  |   1.2 |  0.03
Modify  | 0.1145     | 0.12905    | 0.15647    |   2.4 |  4.00
Other   |            | 0.3605     |            |       | 11.17

Nlocal:        2106.41 ave        3729 max        1647 min
Histogram: 288 0 0 0 0 0 0 0 0 72
Nghost:        12465.6 ave       21982 max        9856 min
Histogram: 288 0 0 0 0 0 0 0 0 72
Neighs:         101555 ave      110621 max       94228 min
Histogram: 18 55 42 36 36 69 73 15 6 10

Total # of neighbors = 36559651
Ave neighs/atom = 48.212139
Ave special neighs/atom = 0.38890794
Neighbor list builds = 19
Dangerous builds = 0
Generated 0 of 10 mixed pair_coeff terms from geometric mixing rule
Last active /omp style is bond_style fene/omp
Setting up Verlet run ...
  Unit style    : lj
  Current step  : 0
  Time step     : 0.005
Per MPI rank memory allocation (min/avg/max) = 10.36 | 12.74 | 18.36 Mbytes
   Step          Temp          PotEng         KinEng         TotEng         Press          Volume           Lx             Ly             Lz      
         0   0.53625926    -0.056489022    0.80438783     0.74789881     38.441562      488291.33      69.6           69.6           100.8        
      1000   0.77576166    -0.98908584     1.1636409      0.17455511     1.8448214      716967.39      79.107204      79.107204      114.56905    
Loop time of 6.47186 on 360 procs for 1000 steps with 758308 atoms

Performance: 66750.474 tau/day, 154.515 timesteps/s, 117.170 Matom-step/s
99.3% CPU use with 360 MPI tasks x 1 OpenMP threads

MPI task timing breakdown:
Section |  min time  |  avg time  |  max time  |%varavg| %total
---------------------------------------------------------------
Pair    | 0.87268    | 0.96481    | 1.1362     |   5.0 | 14.91
Bond    | 0.0010087  | 0.011922   | 0.04223    |   8.2 |  0.18
Neigh   | 3.4536     | 3.572      | 3.6804     |   3.7 | 55.19
Comm    | 0.99943    | 1.2418     | 1.6259     |  16.9 | 19.19
Output  | 0.00010248 | 0.00012079 | 0.0001781  |   0.0 |  0.00
Modify  | 0.38131    | 0.63588    | 0.8402     |  16.7 |  9.83
Other   |            | 0.04534    |            |       |  0.70

Nlocal:        2106.41 ave        3753 max        1646 min
Histogram: 288 0 0 0 0 0 0 0 0 72
Nghost:        10240.1 ave       18397 max        7974 min
Histogram: 288 0 0 0 0 0 0 0 0 72
Neighs:        65962.4 ave       73136 max       60878 min
Histogram: 16 58 56 66 45 21 52 29 6 11

Total # of neighbors = 23746450
Ave neighs/atom = 31.315046
Ave special neighs/atom = 0.38890794
Neighbor list builds = 232
Dangerous builds = 0
Generated 0 of 10 mixed pair_coeff terms from geometric mixing rule
Last active /omp style is bond_style fene/omp
Setting up Verlet run ...
  Unit style    : lj
  Current step  : 1000
  Time step     : 0.005
Per MPI rank memory allocation (min/avg/max) = 10.36 | 12.74 | 18.37 Mbytes
   Step          Temp          PotEng         KinEng         TotEng         Press          Volume           Lx             Ly             Lz      
      1000   0.77576166    -0.98908584     1.1636409      0.17455511     1.8448214      716967.39      79.107204      79.107204      114.56905    
      5000   0.84730952    -0.53355009     1.2709626      0.73741251     0.99625177     791703.42      81.765559      81.765559      118.41909    
     10000   0.85208725    -0.51892799     1.2781292      0.7592012      0.99631066     794183.03      81.850833      81.850833      118.54259    
     15000   0.85413198    -0.51097159     1.2811963      0.77022469     0.99626676     795155.56      81.88423       81.88423       118.59095    
     20000   0.85640729    -0.50315205     1.2846092      0.78145718     1.001187       796546.86      81.93196       81.93196       118.66008    
     25000   0.85943256    -0.49593618     1.2891471      0.79321097     0.993661       797546.8       81.96623       81.96623       118.70971    
     30000   0.86051916    -0.4892374      1.290777       0.80153964     0.99805517     798549.38      82.000562      82.000562      118.75943    
     35000   0.86101941    -0.48816601     1.2915274      0.8033614      1.0051634      798235.56      81.989819      81.989819      118.74388    
     40000   0.86411374    -0.48459845     1.2961689      0.81157046     0.99032167     799324.74      82.027093      82.027093      118.79786    
     45000   0.86528202    -0.47953194     1.2979213      0.81838937     0.99685054     799806.05      82.043554      82.043554      118.8217     
     50000   0.86636888    -0.47865665     1.2995516      0.82089495     0.99634581     799994.55      82.049999      82.049999      118.83103    
     55000   0.86739258    -0.47419686     1.3010871      0.82689029     1.0041317      800419.77      82.064534      82.064534      118.85208    
     60000   0.86798325    -0.47435577     1.3019732      0.82761738     0.99516695     800684.05      82.073564      82.073564      118.86516    
     65000   0.86983187    -0.46935183     1.3047461      0.83539425     1.0105415      801164.8       82.089987      82.089987      118.88895    
     70000   0.86915582    -0.46632886     1.303732       0.83740314     0.98162379     802008.4       82.11879       82.11879       118.93066    
     75000   0.87136455    -0.46506795     1.3070451      0.84197716     1.0057808      801706.75      82.108493      82.108493      118.91575    
     80000   0.87214382    -0.45974399     1.308214       0.84847001     1.005653       802669.72      82.141355      82.141355      118.96334    
     85000   0.87359949    -0.45998543     1.3103975      0.85041207     0.99778385     802774.41      82.144926      82.144926      118.96851    
     90000   0.87486273    -0.45636828     1.3122924      0.85592408     1.0035803      803273.82      82.161957      82.161957      118.99318    
     95000   0.87411613    -0.45464941     1.3111725      0.85652306     0.99527443     803739.38      82.177827      82.177827      119.01616    
    100000   0.87360586    -0.45280901     1.3104071      0.85759805     0.99494566     803982.72      82.186119      82.186119      119.02817    
    101000   0.87509773    -0.45330196     1.3126449      0.8593429      1.005595       803727.08      82.177407      82.177407      119.01556    
Loop time of 466.496 on 360 procs for 100000 steps with 758308 atoms

Performance: 92605.310 tau/day, 214.364 timesteps/s, 162.554 Matom-step/s
99.4% CPU use with 360 MPI tasks x 1 OpenMP threads

MPI task timing breakdown:
Section |  min time  |  avg time  |  max time  |%varavg| %total
---------------------------------------------------------------
Pair    | 62.622     | 73.819     | 88.072     |  88.0 | 15.82
Bond    | 0.097745   | 1.1421     | 4.2551     |  87.9 |  0.24
Neigh   | 214.75     | 222.75     | 230.42     |  32.0 | 47.75
Comm    | 86.959     | 109.77     | 143.5      | 143.8 | 23.53
Output  | 0.24458    | 0.51653    | 0.9463     |  27.5 |  0.11
Modify  | 33.121     | 54.099     | 78.282     | 152.5 | 11.60
Other   |            | 4.407      |            |       |  0.94

Nlocal:        2106.41 ave        3814 max        1589 min
Histogram: 192 96 0 0 0 0 0 0 37 35
Nghost:        9716.92 ave       17788 max        7200 min
Histogram: 210 78 0 0 0 0 0 0 0 72
Neighs:        59263.7 ave       71661 max       50585 min
Histogram: 44 77 45 66 16 0 8 20 70 14

Total # of neighbors = 21334921
Ave neighs/atom = 28.134902
Ave special neighs/atom = 0.38890794
Neighbor list builds = 17015
Dangerous builds = 0
System init for write_restart ...
Generated 0 of 10 mixed pair_coeff terms from geometric mixing rule
Last active /omp style is bond_style fene/omp
System init for write_data ...
Generated 0 of 10 mixed pair_coeff terms from geometric mixing rule
Last active /omp style is bond_style fene/omp
WARNING: Not all mixed pair coeffs generated from mixing. Use write_data with 'pair ij' option to store all pair coeffs. (src/write_data.cpp:364)
Total wall time: 0:08:45
======================================
Running post-processing...
======================================
Generating convergence plot...
Plot saved to ./output_plots/convergence_plots/slab_support_5beads_tall_3_1.0_1.05_100000_convergence.png
Generating stress profiles...
No stress data found for slab_support_5beads_tall_3_1.0_1.05_100000, skipping stress plots
No volume data found for slab_support_5beads_tall_3_1.0_1.05_100000, skipping volume fraction plots
Generating piston plots...
Error: Piston position file not found: ./output_files/piston_data/piston_position_slab_support_5beads_tall_3_1.0_1.05_100000.dat
Generating computational efficiency plot...
Found data file: ./data_files/slab_support_5beads_tall_3.data
Mobile atoms: 618410
Entry 'slab_support_5beads_tall_3_1.0_1.05_100000' already exists in tracking file, skipping.
Tracking info written to /jet/home/dpollard/Documents/lammps_work/tracking.txt
Saved /jet/home/dpollard/Documents/lammps_work/time_vs_atoms.png
Saved /jet/home/dpollard/Documents/lammps_work/time_vs_timesteps.png
======================================
Done! Results are in: /jet/home/dpollard/Documents/lammps_runs/slab_with_support_slab_support_5beads_tall_3_1.0_1.05_20260212_200116
======================================
