======================================
Working directory: /jet/home/dpollard/Documents/lammps_runs/slab_with_support_slab_support_tall_angle_7_1.0_1.0_20260208_221431
Trajectory directory (scratch): /ocean/projects/chm250028p/dpollard/lammps_trajectories/slab_with_support_slab_support_tall_angle_7_1.0_1.0_20260208_221431
======================================
Running LAMMPS in slab_with_support with:
  dataname=slab_support_tall_angle_7
  epsSS=1.0, epsSP=1.0
  nsteps=1000000, oldsteps=0, totsteps=1000000
SLURM tasks per node: 120
SLURM CPUs per task: 1
SLURM_GPUS_ON_NODE: 
GPUs allocated: 
Running CPU-only with 600 tasks
LAMMPS (22 Jul 2025)
OMP_NUM_THREADS environment is not set. Defaulting to 1 thread.
  using 1 OpenMP thread(s) per MPI task
using multi-threaded neighbor list subroutines
Reading data file ...
  orthogonal box = (0 0 0) to (89.6 89.6 147)
  6 by 10 by 10 MPI processor grid
  reading atoms ...
  1466603 atoms
  scanning bonds ...
  3 = max bonds/atom
  scanning angles ...
  6 = max angles/atom
  orthogonal box = (0 0 0) to (89.6 89.6 147)
  6 by 10 by 10 MPI processor grid
  reading bonds ...
  61440 bonds
  reading angles ...
  89790 angles
Finding 1-2 1-3 1-4 neighbors ...
  special bond factors lj:    0        0        0       
  special bond factors coul:  0        0        0       
     4 = max # of 1-2 neighbors
     4 = max # of 1-3 neighbors
     8 = max # of 1-4 neighbors
    12 = max # of special neighbors
  special bonds CPU = 0.171 seconds
  read_data CPU = 4.209 seconds
>>> is_restart = 0
>>> Previous    # of timesteps: 0
>>> Current     # of timesteps: 1000000
>>> Cumulative  # of timesteps: 1000000
54400 atoms in group polymer
1180139 atoms in group solvent
116032 atoms in group support
116032 atoms in group piston
1234539 atoms in group mobile
286464 atoms in group polymer_and_support
Finding 1-2 1-3 1-4 neighbors ...
  special bond factors lj:    0        1        1       
  special bond factors coul:  0        1        1       
     4 = max # of 1-2 neighbors
    12 = max # of special neighbors
  special bonds CPU = 0.075 seconds
Generated 0 of 10 mixed pair_coeff terms from geometric mixing rule
Last active /omp style is angle_style harmonic
Neighbor list info ...
  update: every = 1 steps, delay = 0 steps, check = yes
  max neighbors/atom: 2000, page size: 100000
  master list distance cutoff = 2.8
  ghost atom cutoff = 5
  binsize = 1.4, bins = 64 64 105
  1 neighbor lists, perpetual/occasional/extra = 1 0 0
  (1) pair lj/cut/omp, perpetual
      attributes: half, newton on, omp
      pair build: half/bin/newton/omp
      stencil: half/bin/3d
      bin: standard
Setting up cg style minimization ...
  Unit style    : lj
  Current step  : 0
Per MPI rank memory allocation (min/avg/max) = 15.62 | 17.96 | 26.48 Mbytes
   Step          Temp          E_pair         E_mol          TotEng         Press     
         0   0              1.2172646e+19  2.6738699      1.2172646e+19  6.050959e+19 
       566   0             -5.7628089      2.6331784     -3.1296305      4.7160817    
Loop time of 6.75417 on 600 procs for 566 steps with 1466603 atoms

99.2% CPU use with 600 MPI tasks x 1 OpenMP threads

Minimization stats:
  Stopping criterion = energy tolerance
  Energy initial, next-to-last, final = 
    1.2172646317842e+19  -3.12933510104087  -3.12963051648194
  Force two-norm initial, final = 2.8436079e+28 1863.0052
  Force max component initial, final = 1.8073849e+28 536.08026
  Final line search alpha, max atom move = 0.00012399858 0.06647319
  Iterations, force evaluations = 566 618

MPI task timing breakdown:
Section |  min time  |  avg time  |  max time  |%varavg| %total
---------------------------------------------------------------
Pair    | 1.0716     | 1.3004     | 2.3129     |  12.1 | 19.25
Bond    | 0.0015508  | 0.011257   | 0.027636   |   8.1 |  0.17
Neigh   | 3.1312     | 3.2569     | 3.3629     |   3.5 | 48.22
Comm    | 0.68275    | 1.2647     | 2          |  21.7 | 18.72
Output  | 0          | 0          | 0          |   0.0 |  0.00
Modify  | 0.013949   | 0.027551   | 0.05186    |   4.7 |  0.41
Other   |            | 0.8933     |            |       | 13.23

Nlocal:        2444.34 ave        4085 max        1924 min
Histogram: 324 156 0 0 0 0 0 0 7 113
Nghost:        12512.8 ave       22299 max        9594 min
Histogram: 478 2 0 0 0 0 0 0 0 120
Neighs:        97864.3 ave      115698 max       84365 min
Histogram: 38 105 122 72 35 42 30 80 69 7

Total # of neighbors = 58718571
Ave neighs/atom = 40.037127
Ave special neighs/atom = 0.083785455
Neighbor list builds = 179
Dangerous builds = 32
Generated 0 of 10 mixed pair_coeff terms from geometric mixing rule
Last active /omp style is angle_style harmonic
Setting up Verlet run ...
  Unit style    : lj
  Current step  : 0
  Time step     : 0.001
Per MPI rank memory allocation (min/avg/max) = 14.49 | 16.62 | 24.23 Mbytes
   Step          Temp          PotEng         KinEng         TotEng         Press          Volume           Lx             Ly             Lz      
         0   0.084176757   -3.1296305      0.12626505    -3.0033655      4.8206912      1180139.5      89.6           89.6           147          
      1000   0.59152315    -2.4808659      0.88728412    -1.5935818      9.3352029      1180139.5      89.6           89.6           147          
Loop time of 3.48098 on 600 procs for 1000 steps with 1466603 atoms

Performance: 24820.593 tau/day, 287.275 timesteps/s, 421.319 Matom-step/s
99.4% CPU use with 600 MPI tasks x 1 OpenMP threads

MPI task timing breakdown:
Section |  min time  |  avg time  |  max time  |%varavg| %total
---------------------------------------------------------------
Pair    | 0.97573    | 1.1763     | 1.4239     |   9.6 | 33.79
Bond    | 0.001755   | 0.010254   | 0.024946   |   7.7 |  0.29
Neigh   | 0.41531    | 0.43164    | 0.44754    |   1.2 | 12.40
Comm    | 0.99803    | 1.2761     | 1.6356     |  13.5 | 36.66
Output  | 0.00033277 | 0.001326   | 0.0020098  |   1.0 |  0.04
Modify  | 0.134      | 0.15338    | 0.18409    |   2.5 |  4.41
Other   |            | 0.432      |            |       | 12.41

Nlocal:        2444.34 ave        4068 max        1937 min
Histogram: 399 81 0 0 0 0 0 0 0 120
Nghost:        12510.5 ave       22225 max        9692 min
Histogram: 480 0 0 0 0 0 0 0 0 120
Neighs:        97598.9 ave      112460 max       85565 min
Histogram: 21 80 118 96 65 44 32 64 62 18

Total # of neighbors = 58559316
Ave neighs/atom = 39.92854
Ave special neighs/atom = 0.083785455
Neighbor list builds = 25
Dangerous builds = 0
Generated 0 of 10 mixed pair_coeff terms from geometric mixing rule
Last active /omp style is angle_style harmonic
Setting up Verlet run ...
  Unit style    : lj
  Current step  : 0
  Time step     : 0.005
Per MPI rank memory allocation (min/avg/max) = 14.49 | 16.62 | 24.23 Mbytes
   Step          Temp          PotEng         KinEng         TotEng         Press          Volume           Lx             Ly             Lz      
         0   0.59152315    -2.4808659      0.88728412    -1.5935818      9.3352029      1180139.5      89.6           89.6           147          
      1000   0.82312622    -1.7772325      1.2346885     -0.54254405     1.34616        1477563.3      96.570747      96.570747      158.43638    
Loop time of 7.28207 on 600 procs for 1000 steps with 1466603 atoms

Performance: 59323.767 tau/day, 137.324 timesteps/s, 201.399 Matom-step/s
99.3% CPU use with 600 MPI tasks x 1 OpenMP threads

MPI task timing breakdown:
Section |  min time  |  avg time  |  max time  |%varavg| %total
---------------------------------------------------------------
Pair    | 0.91816    | 1.03       | 1.1481     |   5.4 | 14.14
Bond    | 0.0028512  | 0.017405   | 0.040402   |   9.6 |  0.24
Neigh   | 3.4581     | 3.5956     | 3.7403     |   3.7 | 49.38
Comm    | 1.2311     | 1.6495     | 2.1352     |  16.5 | 22.65
Output  | 0.00025543 | 0.00036164 | 0.00043422 |   0.0 |  0.00
Modify  | 0.5735     | 0.91757    | 1.1821     |  14.4 | 12.60
Other   |            | 0.07159    |            |       |  0.98

Nlocal:        2444.34 ave        4054 max        1972 min
Histogram: 477 3 0 0 0 0 0 0 0 120
Nghost:          11183 ave       20073 max        8710 min
Histogram: 480 0 0 0 0 0 0 0 0 120
Neighs:        76803.3 ave       86549 max       70303 min
Histogram: 23 165 145 54 28 18 12 54 82 19

Total # of neighbors = 46082007
Ave neighs/atom = 31.420914
Ave special neighs/atom = 0.083785455
Neighbor list builds = 220
Dangerous builds = 0
Generated 0 of 10 mixed pair_coeff terms from geometric mixing rule
Last active /omp style is angle_style harmonic
Setting up Verlet run ...
  Unit style    : lj
  Current step  : 1000
  Time step     : 0.005
Per MPI rank memory allocation (min/avg/max) = 14.5 | 16.63 | 24.24 Mbytes
   Step          Temp          PotEng         KinEng         TotEng         Press          Volume           Lx             Ly             Lz      
      1000   0.82312622    -1.7772325      1.2346885     -0.54254405     1.34616        1477563.3      96.570747      96.570747      158.43638    
    100000   0.8932132     -1.2921021      1.3398189      0.047716826    1.0014617      1666390.7      100.52078      100.52078      164.9169     
    200000   0.90210077    -1.2655458      1.3531502      0.087604423    0.99636693     1675327.5      100.70015      100.70015      165.21119    
    300000   0.90742774    -1.2482006      1.3611407      0.11294004     0.99243059     1681413.1      100.82194      100.82194      165.41099    
    400000   0.91082111    -1.2410498      1.3662307      0.12518089     1.001874       1683479.4      100.86322      100.86322      165.47872    
    500000   0.9123592     -1.2348925      1.3685379      0.13364532     1.0117669      1685303.1      100.89963      100.89963      165.53845    
    600000   0.91413015    -1.2302238      1.3711943      0.14097053     1.0041499      1686876.9      100.93103      100.93103      165.58996    
    700000   0.91530531    -1.2251959      1.372957       0.14776117     1.0071336      1688614.7      100.96567      100.96567      165.64681    
    800000   0.91692777    -1.2250969      1.3753907      0.1502938      1.0025418      1688479.5      100.96298      100.96298      165.64239    
    900000   0.91641454    -1.2226951      1.3746209      0.15192573     1.0025028      1689501.9      100.98335      100.98335      165.67581    
   1000000   0.91634784    -1.2215869      1.3745208      0.15293395     0.9920405      1690246.5      100.99819      100.99819      165.70015    
   1001000   0.91609684    -1.2206971      1.3741443      0.15344719     1.0039628      1690069.2      100.99465      100.99465      165.69435    
Loop time of 5465.9 on 600 procs for 1000000 steps with 1466603 atoms

Performance: 79035.503 tau/day, 182.953 timesteps/s, 268.319 Matom-step/s
99.4% CPU use with 600 MPI tasks x 1 OpenMP threads

MPI task timing breakdown:
Section |  min time  |  avg time  |  max time  |%varavg| %total
---------------------------------------------------------------
Pair    | 783.52     | 842.73     | 923.41     | 138.9 | 15.42
Bond    | 2.6623     | 15.614     | 57.883     | 449.0 |  0.29
Neigh   | 2457.7     | 2547.1     | 2644.9     |  99.8 | 46.60
Comm    | 976.31     | 1278.4     | 1609.8     | 431.1 | 23.39
Output  | 0.11276    | 0.37704    | 0.73842    |  33.8 |  0.01
Modify  | 507.05     | 726        | 948.56     | 417.6 | 13.28
Other   |            | 55.66      |            |       |  1.02

Nlocal:        2444.34 ave        4025 max        1985 min
Histogram: 480 0 0 0 0 0 0 0 0 120
Nghost:        10473.2 ave       18853 max        8201 min
Histogram: 480 0 0 0 0 0 0 0 0 120
Neighs:        67501.7 ave       75081 max       62932 min
Histogram: 23 145 177 78 8 9 38 69 46 7

Total # of neighbors = 40501007
Ave neighs/atom = 27.615522
Ave special neighs/atom = 0.083785455
Neighbor list builds = 175145
Dangerous builds = 0
System init for write_restart ...
Generated 0 of 10 mixed pair_coeff terms from geometric mixing rule
Last active /omp style is angle_style harmonic
System init for write_data ...
Generated 0 of 10 mixed pair_coeff terms from geometric mixing rule
Last active /omp style is angle_style harmonic
WARNING: Not all mixed pair coeffs generated from mixing. Use write_data with 'pair ij' option to store all pair coeffs. (src/write_data.cpp:364)
Total wall time: 1:31:32
======================================
Running post-processing...
======================================
Generating convergence plot...
Plot saved to ./output_plots/convergence_plots/slab_support_tall_angle_7_1.0_1.0_1000000_convergence.png
Generating stress profiles...
No stress data found for slab_support_tall_angle_7_1.0_1.0_1000000, skipping stress plots
No volume data found for slab_support_tall_angle_7_1.0_1.0_1000000, skipping volume fraction plots
Generating piston plots...
Error: Piston position file not found: ./output_files/piston_data/piston_position_slab_support_tall_angle_7_1.0_1.0_1000000.dat
Generating computational efficiency plot...
Found data file: ./data_files/slab_support_tall_angle_7.data
Mobile atoms: 1234535
Entry 'slab_support_tall_angle_7_1.0_1.0_1000000' already exists in tracking file, skipping.
Tracking info written to /jet/home/dpollard/Documents/lammps_work/tracking.txt
Saved /jet/home/dpollard/Documents/lammps_work/time_vs_atoms.png
Saved /jet/home/dpollard/Documents/lammps_work/time_vs_timesteps.png
======================================
Done! Results are in: /jet/home/dpollard/Documents/lammps_runs/slab_with_support_slab_support_tall_angle_7_1.0_1.0_20260208_221431
======================================
