# ========== Slab Flow Simulation with Piston Forcing ==========
# Starting from equilibrated configuration
# Variables from bash script: dataname, interaction, epsSS, epsSP, nsteps
#
# Atom types: 1=polymer, 2=crosslinker, 3=solvent, 4=support, 5=piston, 6=walls
#
# Reduced LJ units: tau = sigma*sqrt(m/epsilon)
# dt = 0.005 → 1e6 steps ≈ 4.1e3 tau
#
# Phases:
#   1. Soft push (1000 steps) - resolve overlaps with ramped soft potential
#   2. Switch to LJ + minimize + brief equilibration (5000 steps)
#   3. Production flow with piston forcing (nsteps)


# ==========================================================================
#                              PARAMETERS
# ==========================================================================

# ----- Physical Parameters -----
variable sigma equal 1.0
variable temp_target equal 1.0
variable timestep_prod equal 0.005

# ----- Piston Parameters -----
variable piston_force equal -0.001           # Negative = push down (-z)
variable nsteps_softpush equal 1000
variable soft_prefactor_max equal 50

# ----- Output Frequencies -----
variable thermo_freq equal 10000
variable dump_freq_setup equal 1000        # Frequent dumps during setup (Phases 1-2)
variable dump_freq_prod equal 10000        # Sparse dumps during production (Phase 3)
variable volume_freq equal 5000

# ----- Time Averaging (stress) -----
# nfreq = nevery * nrepeat (LAMMPS constraint)
variable num_stress_curves equal 10    # target output frames (increase to 20–50 for more temporal resolution)
variable nevery_target equal 100       # ~0.5 tau — near stress decorrelation time
variable nrepeat_max equal 2000        # cap to preserve transient resolution (decrease to 500–1000 for faster flow)
variable nrepeat_min equal 50          # floor for adequate noise reduction

variable nfreq_raw equal floor(${nsteps}/v_num_stress_curves)
variable nrepeat_raw equal floor(v_nfreq_raw/v_nevery_target)

# Clamp nrepeat to [min, max]
variable nr_lo equal (v_nrepeat_raw>v_nrepeat_min)*v_nrepeat_raw+(v_nrepeat_raw<=v_nrepeat_min)*v_nrepeat_min
variable nrepeat_stress equal (v_nr_lo<v_nrepeat_max)*v_nr_lo+(v_nr_lo>=v_nrepeat_max)*v_nrepeat_max

# Derive nevery and enforce exact constraint
variable nevery_stress equal floor(v_nfreq_raw/v_nrepeat_stress)
variable nfreq_stress equal v_nevery_stress*v_nrepeat_stress

print ">>> Stress: nevery=${nevery_stress} nrepeat=${nrepeat_stress} nfreq=${nfreq_stress}"

# ----- Spatial Binning -----
variable binWidth equal 2.0
variable rg_scale equal 1.8                # Rg multiplier (~90% coverage for Gaussian)
variable region_frac equal 0.9             # Fraction of polymer extent for analysis regions


# ==========================================================================
#                           INITIALIZATION
# ==========================================================================

units lj
dimension 3
boundary p p p # WILL NEED TO CHANGE THE THIRD P TO F FOR PRESSURE PROFILES
atom_style molecular
atom_modify map array

# Define styles before read_data (nocoeff skips coefficient sections)
pair_style hybrid/overlay lj/cut 2.5 soft 2.5
bond_style fene

read_data data_files/${dataname}.data nocoeff

comm_modify cutoff 5.0

print "========================================"
print "Flow simulation: ${dataname}"
print "Interaction: epsSS=${epsSS}, epsSP=${epsSP}"
print "Production steps: ${nsteps}"
print "Piston force per bead: ${piston_force}"
print "========================================"


# ==========================================================================
#                          GROUP DEFINITIONS
# ==========================================================================

group polymer type 1 2
group solvent type 3
group support type 4
group piston type 5
group walls type 6
group mobile type 1 2 3
group gel_system type 1 2 3 4 5


# ==========================================================================
#                       INTERATOMIC POTENTIALS
# ==========================================================================

# ----- LJ Interactions (hybrid/overlay for soft push phase) -----
pair_coeff * * lj/cut 1.0 ${sigma} 2.5

# Polymer-solvent & solvent-solvent (tunable)
pair_coeff 1 3 lj/cut ${epsSP} ${sigma} 2.5    # polymer-solvent
pair_coeff 2 3 lj/cut ${epsSP} ${sigma} 2.5    # crosslinker-solvent
pair_coeff 3 3 lj/cut ${epsSS} ${sigma} 2.5    # solvent-solvent

# Polymer/crosslinker with support (WCA repulsive)
pair_coeff 1 4 lj/cut 1.0 ${sigma} 1.22
pair_coeff 2 4 lj/cut 1.0 ${sigma} 1.22

# Polymer/crosslinker with piston (WCA repulsive)
pair_coeff 1 5 lj/cut 1.0 ${sigma} 1.22
pair_coeff 2 5 lj/cut 1.0 ${sigma} 1.22

# Non-interacting pairs (OFF)
pair_coeff 3 4 lj/cut 0.0 ${sigma} 0.0         # solvent-support
pair_coeff 3 5 lj/cut 0.0 ${sigma} 0.0         # solvent-piston (soft only initially)
pair_coeff 4 4 lj/cut 0.0 ${sigma} 0.0         # support-support
pair_coeff 4 5 lj/cut 0.0 ${sigma} 0.0         # support-piston
pair_coeff 5 5 lj/cut 0.0 ${sigma} 0.0         # piston-piston

# Wall interactions (OFF for LJ - soft only initially)
pair_coeff 1 6 lj/cut 0.0 ${sigma} 0.0         # polymer-wall
pair_coeff 2 6 lj/cut 0.0 ${sigma} 0.0         # crosslinker-wall
pair_coeff 3 6 lj/cut 0.0 ${sigma} 0.0         # solvent-wall
pair_coeff 4 6 lj/cut 0.0 ${sigma} 0.0         # support-wall
pair_coeff 5 6 lj/cut 0.0 ${sigma} 0.0         # piston-wall
pair_coeff 6 6 lj/cut 0.0 ${sigma} 0.0         # wall-wall

# ----- Soft Potentials (for overlap resolution, start at 0) -----
pair_coeff 3 5 soft 0.0 ${sigma}               # solvent-piston
pair_coeff 1 6 soft 0.0 ${sigma}               # polymer-wall
pair_coeff 2 6 soft 0.0 ${sigma}               # crosslinker-wall
pair_coeff 3 6 soft 0.0 ${sigma}               # solvent-wall

# ----- Bonds and Angles -----
bond_coeff * 30.0 1.5 1.0 1.0
special_bonds fene

# Angle style — hybrid because the two types need different potentials
#angle_style hybrid cosine harmonic

# Type 1: intra-chain backbone (eq 180°)
#   cosine: E = K(1 + cos(theta)), minimum at 180°
#   K = 0–2 is typical for PEG-like hydrogels
#angle_coeff 1 cosine 1.0

# Type 2: crosslink tetrahedral junctions (eq 109.47°)
#   harmonic: E = K(theta - theta0)^2
#   K = 30–50 gives meaningful compression resistance
#angle_coeff 2 harmonic 40.0 109.47

# ----- Neighbor List Exclusions -----
neigh_modify exclude type 4 4   # support-support
neigh_modify exclude type 5 5   # piston-piston
neigh_modify exclude type 6 6   # wall-wall
neigh_modify exclude type 4 5   # support-piston
neigh_modify exclude type 4 6   # support-wall
neigh_modify exclude type 5 6   # piston-wall


# ==========================================================================
#                           RIGID BODIES
# ==========================================================================

# Support: completely frozen
velocity support set 0.0 0.0 0.0
fix rigid_support support rigid single force * off off off torque * off off off

# Piston: frozen during setup, z-motion enabled in Phase 3
velocity piston set 0.0 0.0 0.0
fix rigid_piston piston rigid single force * off off off torque * off off off
fix freeze_piston piston setforce 0.0 0.0 0.0

# Walls: completely frozen
velocity walls set 0.0 0.0 0.0
fix rigid_walls walls rigid single force * off off off torque * off off off


# ==========================================================================
#                           THERMO OUTPUT
# ==========================================================================

compute mobile_temp mobile temp
thermo_style custom step c_mobile_temp pe ke etotal press vol lx ly lz
thermo_modify lost warn
thermo ${thermo_freq}


# ==========================================================================
#              PHASE 1: SOFT PUSH (Resolve Overlaps)
# ==========================================================================

print "========================================"
print "Phase 1: Soft push to resolve solvent-piston overlaps"
print "========================================"

reset_timestep 0
timestep ${timestep_prod}

# Trajectory dump for setup phases (frequent sampling)
dump traj_setup gel_system custom ${dump_freq_setup} &
    traj_files/gel_setup_${dataname}_${interaction}_${nsteps}.lammpstrj &
    id type mol x y z

fix nvt_push mobile nvt temp ${temp_target} ${temp_target} 1.0

# Ramp soft potential from 0 to max
variable soft_ramp equal ramp(0,${soft_prefactor_max})
fix adapt_soft_3_5 all adapt 1 pair soft a 3 5 v_soft_ramp
fix adapt_soft_1_6 all adapt 1 pair soft a 1 6 v_soft_ramp
fix adapt_soft_2_6 all adapt 1 pair soft a 2 6 v_soft_ramp
fix adapt_soft_3_6 all adapt 1 pair soft a 3 6 v_soft_ramp

run ${nsteps_softpush}

minimize 1.0e-4 1.0e-6 1000 10000

unfix adapt_soft_3_5
unfix adapt_soft_1_6
unfix adapt_soft_2_6
unfix adapt_soft_3_6
unfix nvt_push

print "Soft push complete - overlaps resolved"


# ==========================================================================
#              PHASE 2: SWITCH TO FULL LJ
# ==========================================================================

print "========================================"
print "Phase 2: Switching to full LJ interactions"
print "========================================"

pair_style lj/cut 2.5

pair_coeff * * 1.0 ${sigma} 2.5

# Polymer-solvent & solvent-solvent
pair_coeff 1 3 ${epsSP} ${sigma} 2.5
pair_coeff 2 3 ${epsSP} ${sigma} 2.5
pair_coeff 3 3 ${epsSS} ${sigma} 2.5

# Polymer/crosslinker with support/piston (WCA)
pair_coeff 1 4 1.0 ${sigma} 1.22
pair_coeff 2 4 1.0 ${sigma} 1.22
pair_coeff 1 5 1.0 ${sigma} 1.22
pair_coeff 2 5 1.0 ${sigma} 1.22
pair_coeff 3 5 1.0 ${sigma} 1.22               # solvent-piston now WCA

# Wall interactions (WCA)
pair_coeff 1 6 1.0 ${sigma} 1.22
pair_coeff 2 6 1.0 ${sigma} 1.22
pair_coeff 3 6 1.0 ${sigma} 1.22

# Non-interacting
pair_coeff 3 4 0.0 ${sigma} 0.0
pair_coeff 4 4 0.0 ${sigma} 0.0
pair_coeff 4 5 0.0 ${sigma} 0.0
pair_coeff 4 6 0.0 ${sigma} 0.0
pair_coeff 5 5 0.0 ${sigma} 0.0
pair_coeff 5 6 0.0 ${sigma} 0.0
pair_coeff 6 6 0.0 ${sigma} 0.0

# Aggresively minimize + brief equilibration
minimize 1.0e-4 1.0e-6 1000 10000

fix nvt_equil mobile nvt temp ${temp_target} ${temp_target} 1.0
run 5000
unfix nvt_equil

# End setup trajectory, start production trajectory
undump traj_setup


# ==========================================================================
#              PHASE 3: PRODUCTION FLOW
# ==========================================================================

print "========================================"
print "Phase 3: Production flow with piston forcing"
print "========================================"

# ----- Enable Piston Motion -----
unfix freeze_piston
unfix rigid_piston
fix rigid_piston piston rigid single force * off off on torque * off off off

# ----- Thermostat -----
# Compute temperature from x,y velocities only (flow is in z)
compute myTemp mobile temp/partial 1 1 0
fix nvt_prod mobile nvt temp ${temp_target} ${temp_target} 1.0
fix_modify nvt_prod temp myTemp

# ----- Piston Forces -----
fix push_piston piston addforce 0.0 0.0 ${piston_force}
fix piston_drag piston viscous 0.1

# ----- Production Trajectory (sparse sampling) -----
dump traj_flow gel_system custom ${dump_freq_prod} &
    traj_files/gel_flow_${dataname}_${interaction}_${nsteps}.lammpstrj &
    id type mol x y z


# ==========================================================================
#                    ANALYSIS: POLYMER TRACKING
# ==========================================================================

# Center of mass for region positioning
compute polymer_com polymer com

# Gyration tensor for polymer extent
compute rg_tensor polymer gyration
run 0

variable Rg_xx equal c_rg_tensor[1]
variable Rg_yy equal c_rg_tensor[2]
variable Rg_zz equal c_rg_tensor[3]

print "Rg_xx = ${Rg_xx}"
print "Rg_yy = ${Rg_yy}"
print "Rg_zz = ${Rg_zz}"

variable eps equal 1.0e-12
variable hw_x equal v_region_frac*v_rg_scale*sqrt(v_Rg_xx + v_eps)
variable hw_y equal v_region_frac*v_rg_scale*sqrt(v_Rg_yy + v_eps)
variable hw_z equal v_region_frac*v_rg_scale*sqrt(v_Rg_zz + v_eps)

print "hw_x = ${hw_x}"
print "hw_y = ${hw_y}"
print "hw_z = ${hw_z}"




# ==========================================================================
#                    ANALYSIS: DYNAMIC REGIONS
# ==========================================================================

# Region for X-direction binning: restricted in Y-Z, full extent in X
variable reg_x_ylo equal c_polymer_com[2]-v_hw_y
variable reg_x_yhi equal c_polymer_com[2]+v_hw_y
variable reg_x_zlo equal c_polymer_com[3]-v_hw_z
variable reg_x_zhi equal c_polymer_com[3]+v_hw_z
region reg_x block EDGE EDGE v_reg_x_ylo v_reg_x_yhi v_reg_x_zlo v_reg_x_zhi side in

# Region for Y-direction binning: restricted in X-Z, full extent in Y
variable reg_y_xlo equal c_polymer_com[1]-v_hw_x
variable reg_y_xhi equal c_polymer_com[1]+v_hw_x
variable reg_y_zlo equal c_polymer_com[3]-v_hw_z
variable reg_y_zhi equal c_polymer_com[3]+v_hw_z
region reg_y block v_reg_y_xlo v_reg_y_xhi EDGE EDGE v_reg_y_zlo v_reg_y_zhi side in

# Region for Z-direction binning: restricted in X-Y, full extent in Z
variable reg_z_xlo equal c_polymer_com[1]-v_hw_x
variable reg_z_xhi equal c_polymer_com[1]+v_hw_x
variable reg_z_ylo equal c_polymer_com[2]-v_hw_y
variable reg_z_yhi equal c_polymer_com[2]+v_hw_y
region reg_z block v_reg_z_xlo v_reg_z_xhi v_reg_z_ylo v_reg_z_yhi EDGE EDGE side in


# ==========================================================================
#                    ANALYSIS: CHUNK DEFINITIONS
# ==========================================================================

# 1D binning with dynamic rectangular regions
compute chunk_x_polymer polymer chunk/atom bin/1d x lower ${binWidth} region reg_x
compute chunk_y_polymer polymer chunk/atom bin/1d y lower ${binWidth} region reg_y
compute chunk_z_polymer polymer chunk/atom bin/1d z lower ${binWidth} region reg_z

compute chunk_x_solvent solvent chunk/atom bin/1d x lower ${binWidth} region reg_x
compute chunk_y_solvent solvent chunk/atom bin/1d y lower ${binWidth} region reg_y
compute chunk_z_solvent solvent chunk/atom bin/1d z lower ${binWidth} region reg_z


# ==========================================================================
#                    ANALYSIS: PARTIAL STRESSES
# ==========================================================================

compute stress_polymer polymer stress/atom NULL
compute stress_solvent solvent stress/atom NULL

# Partial stress for each atom: P = -(σxx + σyy + σzz)/(3*vol)
variable press_polymer_x atom -(c_stress_polymer[1]+c_stress_polymer[2]+c_stress_polymer[3])/(3.0*${binWidth}*ly*lz)
variable press_polymer_y atom -(c_stress_polymer[1]+c_stress_polymer[2]+c_stress_polymer[3])/(3.0*lx*${binWidth}*lz)
variable press_polymer_z atom -(c_stress_polymer[1]+c_stress_polymer[2]+c_stress_polymer[3])/(3.0*lx*ly*${binWidth})

variable press_solvent_x atom -(c_stress_solvent[1]+c_stress_solvent[2]+c_stress_solvent[3])/(3.0*${binWidth}*ly*lz)
variable press_solvent_y atom -(c_stress_solvent[1]+c_stress_solvent[2]+c_stress_solvent[3])/(3.0*lx*${binWidth}*lz)
variable press_solvent_z atom -(c_stress_solvent[1]+c_stress_solvent[2]+c_stress_solvent[3])/(3.0*lx*ly*${binWidth})

# Sum pre-divided per-atom contributions over chunks → pressure per bin
compute press_x_polymer polymer reduce/chunk chunk_x_polymer sum v_press_polymer_x
compute press_y_polymer polymer reduce/chunk chunk_y_polymer sum v_press_polymer_y
compute press_z_polymer polymer reduce/chunk chunk_z_polymer sum v_press_polymer_z

compute press_x_solvent solvent reduce/chunk chunk_x_solvent sum v_press_solvent_x
compute press_y_solvent solvent reduce/chunk chunk_y_solvent sum v_press_solvent_y
compute press_z_solvent solvent reduce/chunk chunk_z_solvent sum v_press_solvent_z



# ==========================================================================
#                    ANALYSIS: GEL VOLUME METRICS
# ==========================================================================

# Bounding box method
compute minx polymer reduce min x
compute maxx polymer reduce max x
compute miny polymer reduce min y
compute maxy polymer reduce max y
compute minz polymer reduce min z
compute maxz polymer reduce max z

variable gel_lx equal c_maxx-c_minx
variable gel_ly equal c_maxy-c_miny
variable gel_lz equal c_maxz-c_minz
variable gel_vol_box equal v_gel_lx*v_gel_ly*v_gel_lz

# Rg-based volume (using tensor components)
variable rg_vol equal 8.0*v_rg_scale^3*sqrt(c_rg_tensor[1]*c_rg_tensor[2]*c_rg_tensor[3])

# Box dimensions
variable box_lx equal lx
variable box_ly equal ly
variable box_lz equal lz


# ==========================================================================
#                         OUTPUT: PISTON DATA
# ==========================================================================

compute piston_z piston reduce ave z
compute piston_vz piston reduce ave vz

fix out_piston_pos all print ${volume_freq} "$(step) $(c_piston_z)" &
    file output_files/piston_data/piston_position_${dataname}_${interaction}_${nsteps}.dat screen no

fix out_piston_vel all print ${volume_freq} "$(step) $(c_piston_vz)" &
    file output_files/piston_data/piston_velocity_${dataname}_${interaction}_${nsteps}.dat screen no


# ==========================================================================
#                    OUTPUT: PARTIAL STRESS PROFILES (time-averaged)
# ==========================================================================

fix avg_stress_x_poly all ave/time ${nevery_stress} ${nrepeat_stress} ${nfreq_stress} &
    c_press_x_polymer mode vector file output_files/stress_data/stress_x_polymer_${dataname}_${interaction}_${nsteps}.dat

fix avg_stress_y_poly all ave/time ${nevery_stress} ${nrepeat_stress} ${nfreq_stress} &
    c_press_y_polymer mode vector file output_files/stress_data/stress_y_polymer_${dataname}_${interaction}_${nsteps}.dat

fix avg_stress_z_poly all ave/time ${nevery_stress} ${nrepeat_stress} ${nfreq_stress} &
    c_press_z_polymer mode vector file output_files/stress_data/stress_z_polymer_${dataname}_${interaction}_${nsteps}.dat

fix avg_stress_x_solv all ave/time ${nevery_stress} ${nrepeat_stress} ${nfreq_stress} &
    c_press_x_solvent mode vector file output_files/stress_data/stress_x_solvent_${dataname}_${interaction}_${nsteps}.dat

fix avg_stress_y_solv all ave/time ${nevery_stress} ${nrepeat_stress} ${nfreq_stress} &
    c_press_y_solvent mode vector file output_files/stress_data/stress_y_solvent_${dataname}_${interaction}_${nsteps}.dat

fix avg_stress_z_solv all ave/time ${nevery_stress} ${nrepeat_stress} ${nfreq_stress} &
    c_press_z_solvent mode vector file output_files/stress_data/stress_z_solvent_${dataname}_${interaction}_${nsteps}.dat



# ==========================================================================
#                    OUTPUT: GEL DIMENSIONS
# ==========================================================================

fix out_gel_vol all print ${volume_freq} "$(step) ${gel_vol_box}" &
    file output_files/volume_data/gel_volume_bb_${dataname}_${interaction}_${nsteps}.dat screen no

fix out_gel_rg all print ${volume_freq} "$(step) $(c_rg_tensor[1]) ${rg_vol}" &
    file output_files/volume_data/gel_volume_rg_${dataname}_${interaction}_${nsteps}.dat screen no

fix out_gel_dims all print ${volume_freq} "$(step) ${gel_lx} ${gel_ly} ${gel_lz}" &
    file output_files/volume_data/gel_dimensions_${dataname}_${interaction}_${nsteps}.dat screen no

fix out_box_dims all print ${volume_freq} "$(step) ${box_lx} ${box_ly} ${box_lz}" &
    file output_files/volume_data/box_dimensions_${dataname}_${interaction}_${nsteps}.dat screen no

fix out_polymer_com all print ${volume_freq} "$(step) $(c_polymer_com[1]) $(c_polymer_com[2]) $(c_polymer_com[3])" &
    file output_files/volume_data/polymer_com_${dataname}_${interaction}_${nsteps}.dat screen no


# ==========================================================================
#                         PRODUCTION RUN
# ==========================================================================

run ${nsteps}


# ==========================================================================
#                            CLEANUP
# ==========================================================================

print "========================================"
print "Flow simulation complete"
print "========================================"

write_data final_flow_${dataname}_${interaction}_${nsteps}.data