======================================
Working directory: /home/pollard/Documents/lammps_runs/pure_solvent_solvent_box_rho6_02_1.5_1.4_20260103_152905
Trajectory directory (scratch): /scratch/pollard/lammps_trajectories/pure_solvent_solvent_box_rho6_02_1.5_1.4_20260103_152905
======================================
Running LAMMPS in pure_solvent with:
  dataname=solvent_box_rho6_02
  epsSS=1.5, epsSP=1.4
  nsteps=20000, oldsteps=0, totsteps=20000
SLURM tasks per node: 40
SLURM CPUs per task: 1
LAMMPS (22 Jul 2025 - Update 1)
OMP_NUM_THREADS environment is not set. Defaulting to 1 thread.
  using 1 OpenMP thread(s) per MPI task
using multi-threaded neighbor list subroutines
Reading data file ...
  orthogonal box = (0 0 0) to (200 200 200)
  2 by 4 by 5 MPI processor grid
  reading atoms ...
  8000000 atoms
Finding 1-2 1-3 1-4 neighbors ...
  special bond factors lj:    0        0        0       
  special bond factors coul:  0        0        0       
     0 = max # of 1-2 neighbors
     0 = max # of 1-3 neighbors
     0 = max # of 1-4 neighbors
     1 = max # of special neighbors
  special bonds CPU = 0.255 seconds
  read_data CPU = 17.457 seconds
>>> Fresh run (no restart for pure solvent)
>>> Current     # of timesteps: 20000
>>> Cumulative  # of timesteps: 20000
8000000 atoms in group solvent
Generated 0 of 0 mixed pair_coeff terms from geometric mixing rule
Last active /omp style is pair_style lj/cut/omp
Neighbor list info ...
  update: every = 1 steps, delay = 0 steps, check = yes
  max neighbors/atom: 2000, page size: 100000
  master list distance cutoff = 2.8
  ghost atom cutoff = 5
  binsize = 1.4, bins = 143 143 143
  1 neighbor lists, perpetual/occasional/extra = 1 0 0
  (1) pair lj/cut/omp, perpetual
      attributes: half, newton on, omp
      pair build: half/bin/newton/omp
      stencil: half/bin/3d
      bin: standard
Setting up cg style minimization ...
  Unit style    : lj
  Current step  : 0
Per MPI rank memory allocation (min/avg/max) = 209.6 | 211 | 212.2 Mbytes
   Step          Temp          E_pair         E_mol          TotEng         Press     
         0   0              5.3002714e+21  0              5.3002714e+21  2.1201086e+22
       298   0             -10.438556      0             -10.438556      2.516249     
Loop time of 115.668 on 40 procs for 298 steps with 8000000 atoms

98.0% CPU use with 40 MPI tasks x 1 OpenMP threads

Minimization stats:
  Stopping criterion = energy tolerance
  Energy initial, next-to-last, final = 
    5.30027142704827e+21  -10.4377790718977  -10.4385561642757
  Force two-norm initial, final = 1.0722922e+32 5161.2623
  Force max component initial, final = 5.862539e+31 82.141668
  Final line search alpha, max atom move = 0.00022512521 0.01849216
  Iterations, force evaluations = 298 405

MPI task timing breakdown:
Section |  min time  |  avg time  |  max time  |%varavg| %total
---------------------------------------------------------------
Pair    | 77.503     | 79.479     | 81.368     |  14.5 | 68.71
Bond    | 5.7093e-05 | 7.6814e-05 | 0.00010821 |   0.0 |  0.00
Neigh   | 17.762     | 18.314     | 18.909     |   9.0 | 15.83
Comm    | 5.7021     | 8.0182     | 10.454     |  58.5 |  6.93
Output  | 0          | 0          | 0          |   0.0 |  0.00
Modify  | 0.85197    | 0.86583    | 0.87653    |   0.6 |  0.75
Other   |            | 8.992      |            |       |  7.77

Nlocal:         200000 ave      200968 max      199259 min
Histogram: 2 5 5 6 7 8 2 2 2 1
Nghost:         130049 ave      130443 max      129486 min
Histogram: 3 0 2 3 9 2 4 8 6 3
Neighs:    9.02591e+06 ave 9.11679e+06 max 8.93442e+06 min
Histogram: 1 5 4 1 8 7 6 3 4 1

Total # of neighbors = 3.6103657e+08
Ave neighs/atom = 45.129571
Ave special neighs/atom = 0
Neighbor list builds = 48
Dangerous builds = 0
Generated 0 of 0 mixed pair_coeff terms from geometric mixing rule
Last active /omp style is pair_style lj/cut/omp
Setting up Verlet run ...
  Unit style    : lj
  Current step  : 0
  Time step     : 0.001
Per MPI rank memory allocation (min/avg/max) = 186.4 | 187.5 | 188.6 Mbytes
   Step          Temp          PotEng         KinEng         TotEng         Press          Volume           Lx             Ly             Lz      
         0   0.1           -10.438556      0.14999998    -10.288556      2.616249       8000000        200            200            200          
      1000   0.71847505    -9.7401458      1.0777124     -8.6624334      6.7391856      8000000        200            200            200          
Loop time of 151.811 on 40 procs for 1000 steps with 8000000 atoms

