======================================
Working directory: /jet/home/dpollard/Documents/lammps_runs/pure_solvent_solvent_box_rho6_02_1.5_1.4_20260107_121354
Trajectory directory (scratch): /ocean/projects/chm250028p/dpollard/lammps_trajectories/pure_solvent_solvent_box_rho6_02_1.5_1.4_20260107_121354
======================================
Running LAMMPS in pure_solvent with:
  dataname=solvent_box_rho6_02
  epsSS=1.5, epsSP=1.4
  nsteps=20000, oldsteps=0, totsteps=20000
SLURM tasks per node: 120
SLURM CPUs per task: 1
SLURM_GPUS_ON_NODE: 
GPUs allocated: 
Running CPU-only with 600 tasks
LAMMPS (22 Jul 2025)
  using 1 OpenMP thread(s) per MPI task
using multi-threaded neighbor list subroutines
Reading data file ...
  orthogonal box = (0 0 0) to (200 200 200)
  10 by 10 by 6 MPI processor grid
  reading atoms ...
  8000000 atoms
Finding 1-2 1-3 1-4 neighbors ...
  special bond factors lj:    0        0        0       
  special bond factors coul:  0        0        0       
     0 = max # of 1-2 neighbors
     0 = max # of 1-3 neighbors
     0 = max # of 1-4 neighbors
     1 = max # of special neighbors
  special bonds CPU = 0.290 seconds
  read_data CPU = 20.885 seconds
>>> Fresh run (no restart for pure solvent)
>>> Current     # of timesteps: 20000
>>> Cumulative  # of timesteps: 20000
8000000 atoms in group solvent
Generated 0 of 0 mixed pair_coeff terms from geometric mixing rule
Last active /omp style is pair_style lj/cut/omp
Neighbor list info ...
  update: every = 1 steps, delay = 0 steps, check = yes
  max neighbors/atom: 2000, page size: 100000
  master list distance cutoff = 2.8
  ghost atom cutoff = 5
  binsize = 1.4, bins = 143 143 143
  1 neighbor lists, perpetual/occasional/extra = 1 0 0
  (1) pair lj/cut/omp, perpetual
      attributes: half, newton on, omp
      pair build: half/bin/newton/omp
      stencil: half/bin/3d
      bin: standard
Setting up cg style minimization ...
  Unit style    : lj
  Current step  : 0
Per MPI rank memory allocation (min/avg/max) = 53.05 | 53.48 | 53.61 Mbytes
   Step          Temp          E_pair         E_mol          TotEng         Press     
         0   0              5.3002714e+21  0              5.3002714e+21  2.1201086e+22
       288   0             -10.399956      0             -10.399956      2.7492921    
Loop time of 11.3723 on 600 procs for 288 steps with 8000000 atoms

98.9% CPU use with 600 MPI tasks x 1 OpenMP threads

Minimization stats:
  Stopping criterion = energy tolerance
  Energy initial, next-to-last, final = 
    5.30027142704827e+21  -10.3989662292729   -10.399956422909
  Force two-norm initial, final = 1.0722922e+32 5582.2946
  Force max component initial, final = 5.862539e+31 45.195415
  Final line search alpha, max atom move = 0.00025474431 0.011513275
  Iterations, force evaluations = 288 395

MPI task timing breakdown:
Section |  min time  |  avg time  |  max time  |%varavg| %total
---------------------------------------------------------------
Pair    | 4.6235     | 4.9415     | 8.2973     |  12.5 | 43.45
Bond    | 1.931e-05  | 7.5092e-05 | 0.00031508 |   0.0 |  0.00
Neigh   | 1.1446     | 1.2172     | 1.3139     |   2.8 | 10.70
Comm    | 1.1754     | 2.3263     | 4.7659     |  55.4 | 20.46
Output  | 0          | 0          | 0          |   0.0 |  0.00
Modify  | 0.051897   | 0.074401   | 0.093793   |   3.1 |  0.65
Other   |            | 2.813      |            |       | 24.73

Nlocal:        13333.3 ave       13574 max       13118 min
Histogram: 10 39 67 94 125 109 83 49 15 9
Nghost:        25669.5 ave       25971 max       25387 min
Histogram: 5 22 64 94 141 128 81 44 15 6
Neighs:         602023 ave      628195 max      582792 min
Histogram: 24 57 71 116 125 108 59 25 13 2

Total # of neighbors = 3.6121402e+08
Ave neighs/atom = 45.151753
Ave special neighs/atom = 0
Neighbor list builds = 45
Dangerous builds = 0
Generated 0 of 0 mixed pair_coeff terms from geometric mixing rule
Last active /omp style is pair_style lj/cut/omp
Setting up Verlet run ...
  Unit style    : lj
  Current step  : 0
  Time step     : 0.001
Per MPI rank memory allocation (min/avg/max) = 49.93 | 50.14 | 50.24 Mbytes
   Step          Temp          PotEng         KinEng         TotEng         Press          Volume           Lx             Ly             Lz      
         0   0.1           -10.399956      0.14999998    -10.249956      2.8492921      8000000        200            200            200          
      1000   0.72358801    -9.7266611      1.0853819     -8.6412792      6.8189942      8000000        200            200            200          
Loop time of 13.1874 on 600 procs for 1000 steps with 8000000 atoms

Performance: 6551.698 tau/day, 75.830 timesteps/s, 606.639 Matom-step/s
99.2% CPU use with 600 MPI tasks x 1 OpenMP threads

MPI task timing breakdown:
Section |  min time  |  avg time  |  max time  |%varavg| %total
---------------------------------------------------------------
Pair    | 6.7388     | 7.148      | 7.7644     |   6.9 | 54.20
Bond    | 6.3144e-05 | 0.00021404 | 0.00052521 |   0.0 |  0.00
Neigh   | 0.65148    | 0.68975    | 0.74408    |   2.0 |  5.23
Comm    | 2.7516     | 3.5005     | 4.0407     |  11.6 | 26.54
Output  | 0.00018509 | 0.0065268  | 0.0085289  |   3.1 |  0.05
Modify  | 0.95228    | 1.0256     | 1.2254     |   3.6 |  7.78
Other   |            | 0.8168     |            |       |  6.19

Nlocal:        13333.3 ave       13477 max       13174 min
Histogram: 4 15 46 77 125 129 110 62 22 10
Nghost:        25668.1 ave       25872 max       25435 min
Histogram: 1 7 26 90 136 140 111 60 21 8
Neighs:         599640 ave      611751 max      584974 min
Histogram: 5 22 45 69 102 108 118 72 41 18

Total # of neighbors = 3.5978392e+08
Ave neighs/atom = 44.972989
Ave special neighs/atom = 0
Neighbor list builds = 26
Dangerous builds = 0
Generated 0 of 0 mixed pair_coeff terms from geometric mixing rule
Last active /omp style is pair_style lj/cut/omp
Setting up Verlet run ...
  Unit style    : lj
  Current step  : 0
  Time step     : 0.005
Per MPI rank memory allocation (min/avg/max) = 52.19 | 52.4 | 52.49 Mbytes
   Step          Temp          PotEng         KinEng         TotEng         Press          Volume           Lx             Ly             Lz      
         0   0.72358801    -9.7266611      1.0853819     -8.6412792      6.8189942      8000000        200            200            200          
      1000   0.96908544    -8.849967       1.453628      -7.396339       1.2620802      9171837.7      209.32388      209.32388      209.32388    
Loop time of 21.4011 on 600 procs for 1000 steps with 8000000 atoms

Performance: 20185.924 tau/day, 46.727 timesteps/s, 373.813 Matom-step/s
98.7% CPU use with 600 MPI tasks x 1 OpenMP threads

MPI task timing breakdown:
Section |  min time  |  avg time  |  max time  |%varavg| %total
---------------------------------------------------------------
Pair    | 6.2322     | 6.5655     | 7.1228     |   6.7 | 30.68
Bond    | 0.00013372 | 0.00040979 | 0.0010539  |   0.0 |  0.00
Neigh   | 5.6864     | 5.927      | 7.0549     |   5.6 | 27.70
Comm    | 4.2071     | 5.1865     | 6.6655     |  15.9 | 24.23
Output  | 0.00017636 | 0.00023046 | 0.00042898 |   0.0 |  0.00
Modify  | 2.2139     | 3.3655     | 3.9078     |  13.5 | 15.73
Other   |            | 0.3559     |            |       |  1.66

Nlocal:        13333.3 ave       13412 max       13241 min
Histogram: 2 16 26 82 119 126 130 65 27 7
Nghost:        24128.1 ave       24277 max       24004 min
Histogram: 6 13 83 120 150 121 75 22 7 3
Neighs:         515224 ave      520839 max      508314 min
Histogram: 3 11 29 65 108 150 118 79 32 5

Total # of neighbors = 3.0913438e+08
Ave neighs/atom = 38.641797
Ave special neighs/atom = 0
Neighbor list builds = 231
Dangerous builds = 0
Generated 0 of 0 mixed pair_coeff terms from geometric mixing rule
Last active /omp style is pair_style lj/cut/omp
Setting up Verlet run ...
  Unit style    : lj
  Current step  : 1000
  Time step     : 0.005
Per MPI rank memory allocation (min/avg/max) = 53.32 | 53.53 | 53.63 Mbytes
   Step          Temp          PotEng         KinEng         TotEng         Press          Volume           Lx             Ly             Lz      
      1000   0.96908544    -8.849967       1.453628      -7.396339       1.2620802      9171837.7      209.32388      209.32388      209.32388    
      5000   1.000092      -8.6134277      1.5001378     -7.1132899      0.99828263     9399570.4      211.04221      211.04221      211.04221    
     10000   0.99982452    -8.6145026      1.4997366     -7.114766       0.99937909     9398453        211.03385      211.03385      211.03385    
     15000   0.99946966    -8.6148238      1.4992043     -7.1156195      1.0008643      9397929        211.02993      211.02993      211.02993    
     20000   0.99927846    -8.6142076      1.4989175     -7.1152901      0.99841278     9398831.5      211.03668      211.03668      211.03668    
     21000   0.99958479    -8.6133181      1.499377      -7.1139411      1.0018478      9398938.3      211.03748      211.03748      211.03748    
Loop time of 357.751 on 600 procs for 20000 steps with 8000000 atoms

Performance: 24150.863 tau/day, 55.905 timesteps/s, 447.238 Matom-step/s
99.3% CPU use with 600 MPI tasks x 1 OpenMP threads

MPI task timing breakdown:
Section |  min time  |  avg time  |  max time  |%varavg| %total
---------------------------------------------------------------
Pair    | 117.07     | 122.5      | 128.42     |  27.9 | 34.24
Bond    | 0.0018372  | 0.0084563  | 0.018694   |   2.6 |  0.00
Neigh   | 84.778     | 87.528     | 91.377     |  19.6 | 24.47
Comm    | 77.342     | 89.43      | 100.62     |  50.7 | 25.00
Output  | 0.096409   | 1.3993     | 2.7829     |  66.1 |  0.39
Modify  | 42.344     | 50.247     | 59.301     |  32.0 | 14.05
Other   |            | 6.639      |            |       |  1.86

Nlocal:        13333.3 ave       13437 max       13241 min
Histogram: 3 16 42 133 150 135 99 15 5 2
Nghost:        23859.8 ave       23981 max       23726 min
Histogram: 2 10 32 77 142 142 125 41 23 6
Neighs:         503703 ave      509579 max      497262 min
Histogram: 2 5 26 87 137 165 112 51 11 4

Total # of neighbors = 3.0222208e+08
Ave neighs/atom = 37.777761
Ave special neighs/atom = 0
Neighbor list builds = 3579
Dangerous builds = 0
System init for write_data ...
Generated 0 of 0 mixed pair_coeff terms from geometric mixing rule
Last active /omp style is pair_style lj/cut/omp
Total wall time: 0:07:22
======================================
Running post-processing...
======================================
Generating convergence plot...
Plot saved to ./output_plots/convergence_plots/solvent_box_rho6_02_1.5_1.4_20000_convergence.png
Generating stress profiles...
Found data file: ./data_files/solvent_box_rho6_02.data
Stress profile saved to ./output_plots/solvent_box_rho6_02_1.5_1.4_20000_stress.png
No volume data found for solvent_box_rho6_02_1.5_1.4_20000, skipping volume fraction plots
Generating computational efficiency plot...
Mobile atoms: 8000000
Entry 'solvent_box_rho6_021_1.5_1.4_20000' already exists in tracking file, skipping.
Tracking info written to /jet/home/dpollard/Documents/lammps_work/tracking.txt
Saved /jet/home/dpollard/Documents/lammps_work/time_vs_atoms.png
Saved /jet/home/dpollard/Documents/lammps_work/time_vs_timesteps.png
======================================
Done! Results are in: /jet/home/dpollard/Documents/lammps_runs/pure_solvent_solvent_box_rho6_02_1.5_1.4_20260107_121354
======================================
