======================================
Working directory: /home/pollard/Documents/lammps_runs/pure_solvent_solvent_box_rho6_02_1.5_1.4_20260103_174939
Trajectory directory (scratch): /scratch/pollard/lammps_trajectories/pure_solvent_solvent_box_rho6_02_1.5_1.4_20260103_174939
======================================
Running LAMMPS in pure_solvent with:
  dataname=solvent_box_rho6_02
  epsSS=1.5, epsSP=1.4
  nsteps=20000, oldsteps=0, totsteps=20000
SLURM tasks per node: 40
SLURM CPUs per task: 1
LAMMPS (22 Jul 2025 - Update 1)
OMP_NUM_THREADS environment is not set. Defaulting to 1 thread.
  using 1 OpenMP thread(s) per MPI task
using multi-threaded neighbor list subroutines
Reading data file ...
  orthogonal box = (0 0 0) to (200 200 200)
  4 by 5 by 6 MPI processor grid
  reading atoms ...
  8000000 atoms
Finding 1-2 1-3 1-4 neighbors ...
  special bond factors lj:    0        0        0       
  special bond factors coul:  0        0        0       
     0 = max # of 1-2 neighbors
     0 = max # of 1-3 neighbors
     0 = max # of 1-4 neighbors
     1 = max # of special neighbors
  special bonds CPU = 0.306 seconds
  read_data CPU = 18.002 seconds
>>> Fresh run (no restart for pure solvent)
>>> Current     # of timesteps: 20000
>>> Cumulative  # of timesteps: 20000
8000000 atoms in group solvent
Generated 0 of 0 mixed pair_coeff terms from geometric mixing rule
Last active /omp style is pair_style lj/cut/omp
Neighbor list info ...
  update: every = 1 steps, delay = 0 steps, check = yes
  max neighbors/atom: 2000, page size: 100000
  master list distance cutoff = 2.8
  ghost atom cutoff = 5
  binsize = 1.4, bins = 143 143 143
  1 neighbor lists, perpetual/occasional/extra = 1 0 0
  (1) pair lj/cut/omp, perpetual
      attributes: half, newton on, omp
      pair build: half/bin/newton/omp
      stencil: half/bin/3d
      bin: standard
Setting up cg style minimization ...
  Unit style    : lj
  Current step  : 0
Per MPI rank memory allocation (min/avg/max) = 97.33 | 98.22 | 98.56 Mbytes
   Step          Temp          E_pair         E_mol          TotEng         Press     
         0   0              5.3002714e+21  0              5.3002714e+21  2.1201086e+22
       297   0             -10.440851      0             -10.440851      2.5026129    
Loop time of 40.6664 on 120 procs for 297 steps with 8000000 atoms

97.6% CPU use with 120 MPI tasks x 1 OpenMP threads

Minimization stats:
  Stopping criterion = energy tolerance
  Energy initial, next-to-last, final = 
    5.30027142704827e+21  -10.4399370461583  -10.4408514533117
  Force two-norm initial, final = 1.0722922e+32 5120.8444
  Force max component initial, final = 5.862539e+31 42.009267
  Final line search alpha, max atom move = 0.00027902964 0.011721831
  Iterations, force evaluations = 297 404

MPI task timing breakdown:
Section |  min time  |  avg time  |  max time  |%varavg| %total
---------------------------------------------------------------
Pair    | 25.589     | 26.49      | 27.391     |   8.1 | 65.14
Bond    | 5.8859e-05 | 8.2991e-05 | 0.00012061 |   0.0 |  0.00
Neigh   | 5.7829     | 6.0451     | 6.26       |   3.7 | 14.87
Comm    | 3.3151     | 4.3555     | 5.4801     |  24.8 | 10.71
Output  | 0          | 0          | 0          |   0.0 |  0.00
Modify  | 0.27753    | 0.30786    | 0.33657    |   2.7 |  0.76
Other   |            | 3.468      |            |       |  8.53

Nlocal:        66666.7 ave       67308 max       66115 min
Histogram: 2 4 21 16 30 23 13 7 1 3
Nghost:          63339 ave       63705 max       62960 min
Histogram: 1 4 12 22 20 21 17 14 7 2
Neighs:    3.00816e+06 ave 3.07044e+06 max 2.95557e+06 min
Histogram: 4 8 13 20 28 20 14 7 5 1

Total # of neighbors = 3.6097974e+08
Ave neighs/atom = 45.122467
Ave special neighs/atom = 0
Neighbor list builds = 47
Dangerous builds = 0
Generated 0 of 0 mixed pair_coeff terms from geometric mixing rule
Last active /omp style is pair_style lj/cut/omp
Setting up Verlet run ...
  Unit style    : lj
  Current step  : 0
  Time step     : 0.001
Per MPI rank memory allocation (min/avg/max) = 88.34 | 89.27 | 89.56 Mbytes
   Step          Temp          PotEng         KinEng         TotEng         Press          Volume           Lx             Ly             Lz      
         0   0.1           -10.440851      0.14999998    -10.290851      2.6026128      8000000        200            200            200          
      1000   0.71802721    -9.7417281      1.0770407     -8.6646874      6.7304765      8000000        200            200            200          
Loop time of 53.6394 on 120 procs for 1000 steps with 8000000 atoms

Performance: 1610.757 tau/day, 18.643 timesteps/s, 149.144 Matom-step/s
96.9% CPU use with 120 MPI tasks x 1 OpenMP threads

MPI task timing breakdown:
Section |  min time  |  avg time  |  max time  |%varavg| %total
---------------------------------------------------------------
Pair    | 34.618     | 35.821     | 37.041     |   8.3 | 66.78
Bond    | 0.00014363 | 0.00022311 | 0.00035893 |   0.0 |  0.00
Neigh   | 3.1762     | 3.2714     | 3.3438     |   2.0 |  6.10
Comm    | 5.0637     | 6.2858     | 7.6851     |  21.7 | 11.72
Output  | 0.00073111 | 0.001472   | 0.0040147  |   2.8 |  0.00
Modify  | 6.1123     | 6.5944     | 7.1838     |   6.3 | 12.29
Other   |            | 1.665      |            |       |  3.10

Nlocal:        66666.7 ave       67178 max       66238 min
Histogram: 3 5 12 30 24 21 14 7 2 2
Nghost:        63335.7 ave       63583 max       63052 min
Histogram: 2 4 11 15 18 28 17 13 7 5
Neighs:    2.99787e+06 ave  3.0462e+06 max 2.95631e+06 min
Histogram: 6 7 17 13 25 22 17 8 3 2

Total # of neighbors = 3.597442e+08
Ave neighs/atom = 44.968025
Ave special neighs/atom = 0
Neighbor list builds = 26
Dangerous builds = 0
Generated 0 of 0 mixed pair_coeff terms from geometric mixing rule
Last active /omp style is pair_style lj/cut/omp
Setting up Verlet run ...
  Unit style    : lj
  Current step  : 0
  Time step     : 0.005
Per MPI rank memory allocation (min/avg/max) = 94.34 | 95.29 | 95.56 Mbytes
   Step          Temp          PotEng         KinEng         TotEng         Press          Volume           Lx             Ly             Lz      
         0   0.71802721    -9.7417281      1.0770407     -8.6646874      6.7304765      8000000        200            200            200          
      1000   0.96856973    -8.8494827      1.4528544     -7.3966283      1.2682664      9171279        209.31963      209.31963      209.31963    
Loop time of 85.3588 on 120 procs for 1000 steps with 8000000 atoms

Performance: 5060.990 tau/day, 11.715 timesteps/s, 93.722 Matom-step/s
97.5% CPU use with 120 MPI tasks x 1 OpenMP threads

MPI task timing breakdown:
Section |  min time  |  avg time  |  max time  |%varavg| %total
---------------------------------------------------------------
Pair    | 33.881     | 34.939     | 36.194     |   8.3 | 40.93
Bond    | 0.00013899 | 0.00039305 | 0.00068764 |   0.0 |  0.00
Neigh   | 28.199     | 29.217     | 29.885     |   5.5 | 34.23
Comm    | 9.0188     | 10.552     | 12.365     |  20.5 | 12.36
Output  | 0.00052711 | 0.00057966 | 0.00062446 |   0.0 |  0.00
Modify  | 9.4369     | 9.6166     | 9.8642     |   2.5 | 11.27
Other   |            | 1.034      |            |       |  1.21

Nlocal:        66666.7 ave       66830 max       66490 min
Histogram: 5 4 14 15 22 18 11 11 14 6
Nghost:        59907.1 ave       60121 max       59757 min
Histogram: 8 11 20 20 28 8 10 11 2 2
Neighs:    2.57594e+06 ave 2.59076e+06 max 2.56074e+06 min
Histogram: 7 11 9 15 18 15 14 14 8 9

Total # of neighbors = 3.091134e+08
Ave neighs/atom = 38.639175
Ave special neighs/atom = 0
Neighbor list builds = 234
Dangerous builds = 0
Generated 0 of 0 mixed pair_coeff terms from geometric mixing rule
Last active /omp style is pair_style lj/cut/omp
Setting up Verlet run ...
  Unit style    : lj
  Current step  : 1000
  Time step     : 0.005
Per MPI rank memory allocation (min/avg/max) = 97.36 | 98.32 | 98.59 Mbytes
   Step          Temp          PotEng         KinEng         TotEng         Press          Volume           Lx             Ly             Lz      
      1000   0.96856973    -8.8494827      1.4528544     -7.3966283      1.2682664      9171279        209.31963      209.31963      209.31963    
      5000   0.99981867    -8.6139555      1.4997278     -7.1142277      1.0030523      9398387        211.03336      211.03336      211.03336    
     10000   1.0000272     -8.6139199      1.5000406     -7.1138793      0.99960744     9398960.7      211.03765      211.03765      211.03765    
     15000   0.99983071    -8.6141608      1.4997459     -7.1144149      0.99571325     9399305.2      211.04023      211.04023      211.04023    
     20000   0.99982042    -8.6135891      1.4997304     -7.1138586      0.99983873     9399210.7      211.03952      211.03952      211.03952    
     21000   1.000038      -8.6138921      1.5000568     -7.1138352      0.99911231     9399065.8      211.03844      211.03844      211.03844    
Loop time of 1495.55 on 120 procs for 20000 steps with 8000000 atoms

Performance: 5777.136 tau/day, 13.373 timesteps/s, 106.984 Matom-step/s
97.4% CPU use with 120 MPI tasks x 1 OpenMP threads

MPI task timing breakdown:
Section |  min time  |  avg time  |  max time  |%varavg| %total
---------------------------------------------------------------
Pair    | 648.1      | 667.74     | 693.7      |  33.4 | 44.65
Bond    | 0.0035291  | 0.0077994  | 0.012178   |   1.6 |  0.00
Neigh   | 416.68     | 433.59     | 444.67     |  28.4 | 28.99
Comm    | 148.83     | 178.13     | 210.33     |  94.2 | 11.91
Output  | 0.53917    | 1.035      | 1.5148     |  27.8 |  0.07
Modify  | 191.66     | 195.7      | 201.93     |  14.3 | 13.09
Other   |            | 19.35      |            |       |  1.29

Nlocal:        66666.7 ave       66807 max       66547 min
Histogram: 5 5 24 20 15 17 9 18 5 2
Nghost:        59303.3 ave       59499 max       59154 min
Histogram: 5 5 19 26 25 20 6 12 1 1
Neighs:    2.51849e+06 ave 2.52726e+06 max 2.50871e+06 min
Histogram: 1 6 12 17 19 19 20 15 7 4

Total # of neighbors = 3.0221842e+08
Ave neighs/atom = 37.777303
Ave special neighs/atom = 0
Neighbor list builds = 3578
Dangerous builds = 0
System init for write_data ...
Generated 0 of 0 mixed pair_coeff terms from geometric mixing rule
Last active /omp style is pair_style lj/cut/omp
Total wall time: 0:28:29
======================================
Running post-processing...
======================================
Generating convergence plot...
Plot saved to ./output_plots/convergence_plots/solvent_box_rho6_02_1.5_1.4_20000_convergence.png
Generating stress profiles...
Found data file: ./data_files/solvent_box_rho6_02.data
Stress profile saved to ./output_plots/solvent_box_rho6_02_1.5_1.4_20000_stress.png
No volume data found for solvent_box_rho6_02_1.5_1.4_20000, skipping volume fraction plots
Generating computational efficiency plot...
Mobile atoms: 8000000
Entry 'solvent_box_rho6_021_1.5_1.4_20000' already exists in tracking file, skipping.
Tracking info written to /home/pollard/Documents/lammps_work/tracking.txt
Saved /home/pollard/Documents/lammps_work/time_vs_atoms.png
Saved /home/pollard/Documents/lammps_work/time_vs_timesteps.png
======================================
Done! Results are in: /home/pollard/Documents/lammps_runs/pure_solvent_solvent_box_rho6_02_1.5_1.4_20260103_174939
======================================
