======================================
Working directory: /jet/home/dpollard/Documents/lammps_runs/pure_solvent_solvent_box_rho6_02_1.5_1.4_20260107_130556
Trajectory directory (scratch): /ocean/projects/chm250028p/dpollard/lammps_trajectories/pure_solvent_solvent_box_rho6_02_1.5_1.4_20260107_130556
======================================
Running LAMMPS in pure_solvent with:
  dataname=solvent_box_rho6_02
  epsSS=1.5, epsSP=1.4
  nsteps=200000, oldsteps=0, totsteps=200000
SLURM tasks per node: 120
SLURM CPUs per task: 1
SLURM_GPUS_ON_NODE: 
GPUs allocated: 
Running CPU-only with 600 tasks
LAMMPS (22 Jul 2025)
  using 1 OpenMP thread(s) per MPI task
using multi-threaded neighbor list subroutines
Reading data file ...
  orthogonal box = (0 0 0) to (200 200 200)
  10 by 10 by 6 MPI processor grid
  reading atoms ...
  8000000 atoms
Finding 1-2 1-3 1-4 neighbors ...
  special bond factors lj:    0        0        0       
  special bond factors coul:  0        0        0       
     0 = max # of 1-2 neighbors
     0 = max # of 1-3 neighbors
     0 = max # of 1-4 neighbors
     1 = max # of special neighbors
  special bonds CPU = 0.364 seconds
  read_data CPU = 31.724 seconds
>>> Fresh run (no restart for pure solvent)
>>> Current     # of timesteps: 200000
>>> Cumulative  # of timesteps: 200000
8000000 atoms in group solvent
Generated 0 of 0 mixed pair_coeff terms from geometric mixing rule
Last active /omp style is pair_style lj/cut/omp
Neighbor list info ...
  update: every = 1 steps, delay = 0 steps, check = yes
  max neighbors/atom: 2000, page size: 100000
  master list distance cutoff = 2.8
  ghost atom cutoff = 5
  binsize = 1.4, bins = 143 143 143
  1 neighbor lists, perpetual/occasional/extra = 1 0 0
  (1) pair lj/cut/omp, perpetual
      attributes: half, newton on, omp
      pair build: half/bin/newton/omp
      stencil: half/bin/3d
      bin: standard
Setting up cg style minimization ...
  Unit style    : lj
  Current step  : 0
Per MPI rank memory allocation (min/avg/max) = 53.05 | 53.48 | 53.61 Mbytes
   Step          Temp          E_pair         E_mol          TotEng         Press     
         0   0              5.3002714e+21  0              5.3002714e+21  2.1201086e+22
       288   0             -10.399956      0             -10.399956      2.7492921    
Loop time of 11.307 on 600 procs for 288 steps with 8000000 atoms

99.0% CPU use with 600 MPI tasks x 1 OpenMP threads

Minimization stats:
  Stopping criterion = energy tolerance
  Energy initial, next-to-last, final = 
    5.30027142704827e+21  -10.3989662292729   -10.399956422909
  Force two-norm initial, final = 1.0722922e+32 5582.2946
  Force max component initial, final = 5.862539e+31 45.195415
  Final line search alpha, max atom move = 0.00025474431 0.011513275
  Iterations, force evaluations = 288 395

MPI task timing breakdown:
Section |  min time  |  avg time  |  max time  |%varavg| %total
---------------------------------------------------------------
Pair    | 4.5931     | 4.9306     | 7.8466     |  12.2 | 43.61
Bond    | 2.35e-05   | 7.4544e-05 | 0.00016696 |   0.0 |  0.00
Neigh   | 1.1366     | 1.2154     | 1.3141     |   2.8 | 10.75
Comm    | 1.1443     | 2.2152     | 4.6915     |  52.9 | 19.59
Output  | 0          | 0          | 0          |   0.0 |  0.00
Modify  | 0.045595   | 0.07425    | 0.093319   |   3.1 |  0.66
Other   |            | 2.871      |            |       | 25.40

Nlocal:        13333.3 ave       13574 max       13118 min
Histogram: 10 39 67 94 125 109 83 49 15 9
Nghost:        25669.5 ave       25971 max       25387 min
Histogram: 5 22 64 94 141 128 81 44 15 6
Neighs:         602023 ave      628195 max      582792 min
Histogram: 24 57 71 116 125 108 59 25 13 2

Total # of neighbors = 3.6121402e+08
Ave neighs/atom = 45.151753
Ave special neighs/atom = 0
Neighbor list builds = 45
Dangerous builds = 0
Generated 0 of 0 mixed pair_coeff terms from geometric mixing rule
Last active /omp style is pair_style lj/cut/omp
Setting up Verlet run ...
  Unit style    : lj
  Current step  : 0
  Time step     : 0.001
Per MPI rank memory allocation (min/avg/max) = 49.93 | 50.14 | 50.24 Mbytes
   Step          Temp          PotEng         KinEng         TotEng         Press          Volume           Lx             Ly             Lz      
         0   0.1           -10.399956      0.14999998    -10.249956      2.8492921      8000000        200            200            200          
      1000   0.72358801    -9.7266611      1.0853819     -8.6412792      6.8189942      8000000        200            200            200          
Loop time of 13.2411 on 600 procs for 1000 steps with 8000000 atoms

Performance: 6525.132 tau/day, 75.522 timesteps/s, 604.179 Matom-step/s
99.2% CPU use with 600 MPI tasks x 1 OpenMP threads

MPI task timing breakdown:
Section |  min time  |  avg time  |  max time  |%varavg| %total
---------------------------------------------------------------
Pair    | 6.7177     | 7.143      | 7.6176     |   6.8 | 53.95
Bond    | 6.7862e-05 | 0.00021669 | 0.00058639 |   0.0 |  0.00
Neigh   | 0.65378    | 0.68981    | 0.78245    |   2.1 |  5.21
Comm    | 2.8575     | 3.4926     | 4.0426     |  11.5 | 26.38
Output  | 0.00016912 | 0.0046632  | 0.0068155  |   3.6 |  0.04
Modify  | 0.94901    | 1.028      | 1.2401     |   3.5 |  7.76
Other   |            | 0.8828     |            |       |  6.67

Nlocal:        13333.3 ave       13477 max       13174 min
Histogram: 4 15 46 77 125 129 110 62 22 10
Nghost:        25668.1 ave       25872 max       25435 min
Histogram: 1 7 26 90 136 140 111 60 21 8
Neighs:         599640 ave      611751 max      584974 min
Histogram: 5 22 45 69 102 108 118 72 41 18

Total # of neighbors = 3.5978392e+08
Ave neighs/atom = 44.972989
Ave special neighs/atom = 0
Neighbor list builds = 26
Dangerous builds = 0
Generated 0 of 0 mixed pair_coeff terms from geometric mixing rule
Last active /omp style is pair_style lj/cut/omp
Setting up Verlet run ...
  Unit style    : lj
  Current step  : 0
  Time step     : 0.005
Per MPI rank memory allocation (min/avg/max) = 52.19 | 52.4 | 52.49 Mbytes
   Step          Temp          PotEng         KinEng         TotEng         Press          Volume           Lx             Ly             Lz      
         0   0.72358801    -9.7266611      1.0853819     -8.6412792      6.8189942      8000000        200            200            200          
      1000   0.96908544    -8.849967       1.453628      -7.396339       1.2620802      9171837.7      209.32388      209.32388      209.32388    
Loop time of 20.5119 on 600 procs for 1000 steps with 8000000 atoms

Performance: 21060.912 tau/day, 48.752 timesteps/s, 390.017 Matom-step/s
98.7% CPU use with 600 MPI tasks x 1 OpenMP threads

MPI task timing breakdown:
Section |  min time  |  avg time  |  max time  |%varavg| %total
---------------------------------------------------------------
Pair    | 6.2587     | 6.5682     | 6.8834     |   6.7 | 32.02
Bond    | 0.00010923 | 0.00040522 | 0.0010621  |   0.0 |  0.00
Neigh   | 5.689      | 5.9184     | 6.7545     |   5.3 | 28.85
Comm    | 4.5147     | 5.1391     | 6.0358     |  13.3 | 25.05
Output  | 0.00016952 | 0.0001953  | 0.00025134 |   0.0 |  0.00
Modify  | 1.9716     | 2.5222     | 2.9895     |   9.5 | 12.30
Other   |            | 0.3635     |            |       |  1.77

Nlocal:        13333.3 ave       13412 max       13241 min
Histogram: 2 16 26 82 119 126 130 65 27 7
Nghost:        24128.1 ave       24277 max       24004 min
Histogram: 6 13 83 120 150 121 75 22 7 3
Neighs:         515224 ave      520839 max      508314 min
Histogram: 3 11 29 65 108 150 118 79 32 5

Total # of neighbors = 3.0913438e+08
Ave neighs/atom = 38.641797
Ave special neighs/atom = 0
Neighbor list builds = 231
Dangerous builds = 0
Generated 0 of 0 mixed pair_coeff terms from geometric mixing rule
Last active /omp style is pair_style lj/cut/omp
Setting up Verlet run ...
  Unit style    : lj
  Current step  : 1000
  Time step     : 0.005
Per MPI rank memory allocation (min/avg/max) = 53.32 | 53.53 | 53.63 Mbytes
   Step          Temp          PotEng         KinEng         TotEng         Press          Volume           Lx             Ly             Lz      
      1000   0.96908544    -8.849967       1.453628      -7.396339       1.2620802      9171837.7      209.32388      209.32388      209.32388    
      5000   1.000092      -8.6134277      1.5001378     -7.1132899      0.99828263     9399570.4      211.04221      211.04221      211.04221    
     10000   0.99982452    -8.6145026      1.4997366     -7.114766       0.99937909     9398453        211.03385      211.03385      211.03385    
     15000   0.99946966    -8.6148238      1.4992043     -7.1156195      1.0008643      9397929        211.02993      211.02993      211.02993    
     20000   0.99927846    -8.6142076      1.4989175     -7.1152901      0.99841278     9398831.5      211.03668      211.03668      211.03668    
     25000   0.99990948    -8.613746       1.499864      -7.113882       0.9999364      9399009        211.03801      211.03801      211.03801    
     30000   1.000109      -8.6136236      1.5001633     -7.1134603      1.0030039      9398751.2      211.03608      211.03608      211.03608    
     35000   1.0003441     -8.6137981      1.5005159     -7.1132822      1.0017447      9398569.3      211.03472      211.03472      211.03472    
     40000   0.9994406     -8.6134586      1.4991607     -7.1142979      1.0016962      9399034.1      211.0382       211.0382       211.0382     
     45000   1.0004993     -8.6139888      1.5007488     -7.11324        0.99629474     9399570.1      211.04221      211.04221      211.04221    
     50000   0.99988429    -8.6131936      1.4998262     -7.1133674      1.0027376      9398931.9      211.03744      211.03744      211.03744    
     55000   0.99972543    -8.614331       1.499588      -7.114743       1.0028712      9397953.6      211.03011      211.03011      211.03011    
     60000   1.0002146     -8.6139615      1.5003218     -7.1136397      1.0034303      9398331.2      211.03294      211.03294      211.03294    
     65000   1.0000586     -8.6126455      1.5000877     -7.1125578      0.99582938     9400483.1      211.04904      211.04904      211.04904    
     70000   1.0003353     -8.6137823      1.5005027     -7.1132796      0.99763468     9399388.1      211.04085      211.04085      211.04085    
     75000   1.0000424     -8.6140921      1.5000635     -7.1140286      1.0028093      9398314.2      211.03281      211.03281      211.03281    
     80000   1.0001293     -8.6138516      1.5001938     -7.1136579      0.99917203     9398966.4      211.03769      211.03769      211.03769    
     85000   0.99936424    -8.6128721      1.4990462     -7.1138259      1.0044279      9399028.5      211.03816      211.03816      211.03816    
