======================================
Working directory: /jet/home/dpollard/Documents/lammps_runs/pure_solvent_solvent_box_rho6_02_1.5_1.4_20260103_212036
Trajectory directory (scratch): /ocean/projects/chm250028p/dpollard/lammps_trajectories/pure_solvent_solvent_box_rho6_02_1.5_1.4_20260103_212036
======================================
Running LAMMPS in pure_solvent with:
  dataname=solvent_box_rho6_02
  epsSS=1.5, epsSP=1.4
  nsteps=20000, oldsteps=0, totsteps=20000
SLURM tasks per node: 120
SLURM CPUs per task: 1
SLURM_GPUS_ON_NODE: 
GPUs allocated: 
Running CPU-only with 480 tasks
LAMMPS (22 Jul 2025)
  using 1 OpenMP thread(s) per MPI task
using multi-threaded neighbor list subroutines
Reading data file ...
  orthogonal box = (0 0 0) to (200 200 200)
  6 by 8 by 10 MPI processor grid
  reading atoms ...
  8000000 atoms
Finding 1-2 1-3 1-4 neighbors ...
  special bond factors lj:    0        0        0       
  special bond factors coul:  0        0        0       
     0 = max # of 1-2 neighbors
     0 = max # of 1-3 neighbors
     0 = max # of 1-4 neighbors
     1 = max # of special neighbors
  special bonds CPU = 2.245 seconds
  read_data CPU = 21.723 seconds
>>> Fresh run (no restart for pure solvent)
>>> Current     # of timesteps: 20000
>>> Cumulative  # of timesteps: 20000
8000000 atoms in group solvent
Generated 0 of 0 mixed pair_coeff terms from geometric mixing rule
Last active /omp style is pair_style lj/cut/omp
Neighbor list info ...
  update: every = 1 steps, delay = 0 steps, check = yes
  max neighbors/atom: 2000, page size: 100000
  master list distance cutoff = 2.8
  ghost atom cutoff = 5
  binsize = 1.4, bins = 143 143 143
  1 neighbor lists, perpetual/occasional/extra = 1 0 0
  (1) pair lj/cut/omp, perpetual
      attributes: half, newton on, omp
      pair build: half/bin/newton/omp
      stencil: half/bin/3d
      bin: standard
Setting up cg style minimization ...
  Unit style    : lj
  Current step  : 0
Per MPI rank memory allocation (min/avg/max) = 54.82 | 54.88 | 55.26 Mbytes
   Step          Temp          E_pair         E_mol          TotEng         Press     
         0   0              5.3002714e+21  0              5.3002714e+21  2.1201086e+22
       321   0             -10.448618      0             -10.448618      2.4560032    
Loop time of 15.4886 on 480 procs for 321 steps with 8000000 atoms

99.1% CPU use with 480 MPI tasks x 1 OpenMP threads

Minimization stats:
  Stopping criterion = energy tolerance
  Energy initial, next-to-last, final = 
    5.30027142704827e+21  -10.4478868547936  -10.4486176510961
  Force two-norm initial, final = 1.0722922e+32 5054.8006
  Force max component initial, final = 5.862539e+31 42.52108
  Final line search alpha, max atom move = 0.00022349144 0.0095030975
  Iterations, force evaluations = 321 428

MPI task timing breakdown:
Section |  min time  |  avg time  |  max time  |%varavg| %total
---------------------------------------------------------------
Pair    | 6.2924     | 6.6896     | 11.182     |  16.0 | 43.19
Bond    | 4.4797e-05 | 0.0001144  | 0.00024723 |   0.0 |  0.00
Neigh   | 1.5544     | 1.6483     | 1.7591     |   3.4 | 10.64
Comm    | 1.2719     | 2.9614     | 6.601      |  73.4 | 19.12
Output  | 0          | 0          | 0          |   0.0 |  0.00
Modify  | 0.054473   | 0.13815    | 0.18719    |   8.4 |  0.89
Other   |            | 4.051      |            |       | 26.16

Nlocal:        16666.7 ave       16927 max       16401 min
Histogram: 3 11 42 80 102 106 73 37 16 10
Nghost:          28842 ave       29182 max       28503 min
Histogram: 2 12 36 83 112 107 80 35 8 5
Neighs:         751996 ave      779662 max      724067 min
Histogram: 2 11 34 86 111 108 75 35 12 6

Total # of neighbors = 3.6095824e+08
Ave neighs/atom = 45.11978
Ave special neighs/atom = 0
Neighbor list builds = 49
Dangerous builds = 1
Generated 0 of 0 mixed pair_coeff terms from geometric mixing rule
Last active /omp style is pair_style lj/cut/omp
Setting up Verlet run ...
  Unit style    : lj
  Current step  : 0
  Time step     : 0.001
Per MPI rank memory allocation (min/avg/max) = 51.45 | 51.5 | 51.89 Mbytes
   Step          Temp          PotEng         KinEng         TotEng         Press          Volume           Lx             Ly             Lz      
         0   0.1           -10.448618      0.14999998    -10.298618      2.5560032      8000000        200            200            200          
      1000   0.7171428     -9.7445934      1.0757141     -8.6688793      6.7140727      8000000        200            200            200          
Loop time of 15.9189 on 480 procs for 1000 steps with 8000000 atoms

Performance: 5427.506 tau/day, 62.818 timesteps/s, 502.547 Matom-step/s
99.3% CPU use with 480 MPI tasks x 1 OpenMP threads

MPI task timing breakdown:
Section |  min time  |  avg time  |  max time  |%varavg| %total
---------------------------------------------------------------
Pair    | 8.4437     | 8.9273     | 9.4934     |   6.5 | 56.08
Bond    | 8.9314e-05 | 0.00026037 | 0.00064228 |   0.0 |  0.00
Neigh   | 0.80471    | 0.85547    | 0.93094    |   2.5 |  5.37
Comm    | 3.5286     | 3.9597     | 4.8035     |  11.3 | 24.87
Output  | 0.00021127 | 0.0064444  | 0.0099937  |   3.8 |  0.04
Modify  | 1.1807     | 1.3615     | 1.6064     |   6.9 |  8.55
Other   |            | 0.8083     |            |       |  5.08

Nlocal:        16666.7 ave       16838 max       16472 min
Histogram: 1 9 23 70 104 114 83 49 22 5
Nghost:        28837.7 ave       29062 max       28586 min
Histogram: 1 8 25 71 103 117 85 48 14 8
Neighs:         749448 ave      767366 max      731009 min
Histogram: 4 9 40 83 99 104 75 50 12 4

Total # of neighbors = 3.5973507e+08
Ave neighs/atom = 44.966884
Ave special neighs/atom = 0
Neighbor list builds = 26
Dangerous builds = 0
Generated 0 of 0 mixed pair_coeff terms from geometric mixing rule
Last active /omp style is pair_style lj/cut/omp
Setting up Verlet run ...
  Unit style    : lj
  Current step  : 0
  Time step     : 0.005
Per MPI rank memory allocation (min/avg/max) = 53.7 | 53.76 | 54.14 Mbytes
   Step          Temp          PotEng         KinEng         TotEng         Press          Volume           Lx             Ly             Lz      
         0   0.7171428     -9.7445934      1.0757141     -8.6688793      6.7140727      8000000        200            200            200          
      1000   0.96860885    -8.8496256      1.4529131     -7.3967125      1.2674088      9171209.9      209.31911      209.31911      209.31911    
Loop time of 24.2884 on 480 procs for 1000 steps with 8000000 atoms

Performance: 17786.250 tau/day, 41.172 timesteps/s, 329.375 Matom-step/s
99.0% CPU use with 480 MPI tasks x 1 OpenMP threads

MPI task timing breakdown:
Section |  min time  |  avg time  |  max time  |%varavg| %total
---------------------------------------------------------------
Pair    | 7.8404     | 8.2361     | 8.6289     |   7.8 | 33.91
Bond    | 0.00020343 | 0.00045147 | 0.00079121 |   0.0 |  0.00
Neigh   | 7.0872     | 7.4202     | 7.7417     |   6.5 | 30.55
Comm    | 5.1984     | 5.7619     | 6.5515     |  15.5 | 23.72
Output  | 0.00017645 | 0.00018855 | 0.0002424  |   0.0 |  0.00
Modify  | 2.1399     | 2.4331     | 2.7249     |   6.8 | 10.02
Other   |            | 0.4364     |            |       |  1.80

Nlocal:        16666.7 ave       16749 max       16561 min
Histogram: 1 2 30 53 77 121 99 54 28 15
Nghost:        27134.6 ave       27251 max       26993 min
Histogram: 3 14 24 60 85 94 105 51 37 7
Neighs:         644049 ave      650976 max      637397 min
Histogram: 6 28 41 82 86 104 68 41 18 6

Total # of neighbors = 3.091433e+08
Ave neighs/atom = 38.642913
Ave special neighs/atom = 0
Neighbor list builds = 234
Dangerous builds = 0
Generated 0 of 0 mixed pair_coeff terms from geometric mixing rule
Last active /omp style is pair_style lj/cut/omp
Setting up Verlet run ...
  Unit style    : lj
  Current step  : 1000
  Time step     : 0.005
Per MPI rank memory allocation (min/avg/max) = 54.84 | 54.89 | 55.27 Mbytes
   Step          Temp          PotEng         KinEng         TotEng         Press          Volume           Lx             Ly             Lz      
      1000   0.96860885    -8.8496256      1.4529131     -7.3967125      1.2674088      9171209.9      209.31911      209.31911      209.31911    
      5000   0.99991092    -8.6133896      1.4998662     -7.1135235      0.99860856     9399504        211.04172      211.04172      211.04172    
     10000   1.0002125     -8.6145347      1.5003185     -7.1142162      0.99806837     9398724.4      211.03588      211.03588      211.03588    
     15000   1.0004596     -8.6152417      1.5006892     -7.1145525      1.0017786      9397563.2      211.02719      211.02719      211.02719    
     20000   0.99973594    -8.6128019      1.4996037     -7.1131981      0.99601713     9400262.3      211.04739      211.04739      211.04739    
     21000   0.9998009     -8.6129016      1.4997012     -7.1132004      0.99885621     9399867.4      211.04444      211.04444      211.04444    
Loop time of 423.644 on 480 procs for 20000 steps with 8000000 atoms

Performance: 20394.495 tau/day, 47.209 timesteps/s, 377.676 Matom-step/s
99.1% CPU use with 480 MPI tasks x 1 OpenMP threads

MPI task timing breakdown:
Section |  min time  |  avg time  |  max time  |%varavg| %total
---------------------------------------------------------------
Pair    | 146.78     | 153.89     | 161.28     |  34.2 | 36.33
Bond    | 0.0042139  | 0.0091547  | 0.01631    |   2.2 |  0.00
Neigh   | 104.89     | 109.03     | 113.58     |  24.1 | 25.74
Comm    | 90.756     | 100.69     | 113.99     |  62.1 | 23.77
Output  | 0.11781    | 1.0678     | 2.1591     |  59.7 |  0.25
Modify  | 44.897     | 50.399     | 55.894     |  31.8 | 11.90
Other   |            | 8.565      |            |       |  2.02

Nlocal:        16666.7 ave       16762 max       16554 min
Histogram: 2 4 10 67 110 110 112 42 19 4
Nghost:        26838.1 ave       27043 max       26708 min
Histogram: 7 24 86 136 139 63 21 2 1 1
Neighs:         629560 ave      636782 max      622037 min
Histogram: 2 5 27 65 129 118 103 25 5 1

Total # of neighbors = 3.0218866e+08
Ave neighs/atom = 37.773583
Ave special neighs/atom = 0
Neighbor list builds = 3572
Dangerous builds = 0
System init for write_data ...
Generated 0 of 0 mixed pair_coeff terms from geometric mixing rule
Last active /omp style is pair_style lj/cut/omp
Total wall time: 0:08:38
======================================
Running post-processing...
======================================
Generating convergence plot...
Plot saved to ./output_plots/convergence_plots/solvent_box_rho6_02_1.5_1.4_20000_convergence.png
Generating stress profiles...
Found data file: ./data_files/solvent_box_rho6_02.data
Stress profile saved to ./output_plots/solvent_box_rho6_02_1.5_1.4_20000_stress.png
No volume data found for solvent_box_rho6_02_1.5_1.4_20000, skipping volume fraction plots
Generating computational efficiency plot...
Mobile atoms: 8000000
Entry 'solvent_box_rho6_021_1.5_1.4_20000' already exists in tracking file, skipping.
Tracking info written to /jet/home/dpollard/Documents/lammps_work/tracking.txt
Saved /jet/home/dpollard/Documents/lammps_work/time_vs_atoms.png
Saved /jet/home/dpollard/Documents/lammps_work/time_vs_timesteps.png
======================================
Done! Results are in: /jet/home/dpollard/Documents/lammps_runs/pure_solvent_solvent_box_rho6_02_1.5_1.4_20260103_212036
======================================
